%mem=28GB
%chk=1122362641520200000001_well
%nprocshared=8
#P wb97xd/6-311++G(d,p) ! ASE formatted method and basis
Symm(None)
scf(xqc)
pop(None)
freq
opt(CalcFC, Tight)

Gaussian input prepared by ASE

0 1
C                 0.6502090000        2.1517460000        0.2661730000
F                 0.1202280000        2.4828200000       -0.8514630000
S                 1.7953690000        0.7035730000       -0.0951220000
O                 3.1109530000        1.3022960000       -0.0802000000
O                 1.4066500000       -0.3682730000        0.7741390000
O                 1.4809040000        0.2082910000       -1.6026690000
H                 2.0829970000        0.6331570000       -2.2260880000


