%mem=28GB
%chk=1201923602880000000001_well
%nprocshared=8
#P wb97xd/6-311++G(d,p) ! ASE formatted method and basis
Symm(None)
scf(xqc)
pop(None)
freq
opt(CalcFC, Tight)

Gaussian input prepared by ASE

0 1
C                -1.6978060000        0.0147040000        0.9810200000
C                -1.0356710000        0.3344990000       -0.3700640000
F                -0.1899800000       -0.6888170000       -0.6811040000
F                -1.9705850000        0.4104420000       -1.3263790000
F                -2.3864880000       -1.1186640000        0.9339540000
F                -0.7572400000       -0.0903560000        1.9202580000
F                -2.5229880000        1.0077630000        1.3148320000
H                -0.4625540000        1.2626830000       -0.3206240000


