%mem=28GB
%chk=1502823922432230600001_well
%nprocshared=8
#P wb97xd/6-311++G(d,p) ! ASE formatted method and basis
Symm(None)
scf(xqc)
pop(None)
freq
opt(CalcFC, Tight)

Gaussian input prepared by ASE

0 1
C                -1.3319560000        0.2711760000        0.6818680000
S                 1.1848500000        1.2155140000        0.4904050000
O                -0.5565920000        1.3677300000        0.7035920000
O                 1.6315520000        2.4497350000        1.0913270000
O                 1.1786610000        1.3955290000       -1.1157980000
F                -2.5603390000        0.6128190000        1.0411380000
F                -1.3974060000       -0.2887180000       -0.5395640000
F                -0.8918830000       -0.6808650000        1.5189880000
H                 0.9105880000        2.2926810000       -1.3648710000


