%mem=28GB
%chk=2003846667223680600001_r12_insertion_R_3_2_1
%nprocshared=8
#P wb97xd/6-311++G(d,p) ! ASE formatted method and basis
Symm(None)
scf(xqc)
pop(None)
opt(NoFreeze,TS,CalcAll,NoEigentest,MaxCycle=999)

Gaussian input prepared by ASE

0 1
C                -1.1162840000       -0.5666500000        1.2628030000
C                 0.2295400000        0.9686680000        0.4442840000
F                -0.6869050000       -0.0460850000       -0.5138280000
F                -0.3651530000        1.9745060000        0.4101350000
S                 1.8533100000        0.5528480000        0.4013380000
O                 2.6571410000        1.5959050000        1.0685880000
O                 1.9532560000       -0.8478710000        0.7497580000
O                 2.3368510000        0.6928580000       -1.1410710000
F                -0.7866070000       -1.6841500000        0.9256300000
F                -0.7444310000       -0.2935600000        2.5245320000
F                -2.2472670000       -0.1476350000        1.0330670000
H                 2.9669730000        1.3991970000       -1.3469480000

1 2 F
1 9 F
1 10 F
1 11 F
2 3 F
2 4 F
2 5 F
5 6 F
5 7 F
5 8 F
8 12 F


