%mem=28GB
%chk=2003846667223680600001_r12_insertion_R_2_1_9_IRC_F
%nprocshared=8
#P wb97xd/6-311++G(d,p) ! ASE formatted method and basis
Symm(None)
scf(xqc)
pop(None)
geom(AllCheck,NoKeepConstants)
guess(Read)
irc(RCFC,forward,MaxPoints=100,StepSize=2)

Gaussian input prepared by ASE

0 1
C                -0.6571380000        0.1135400000        1.4607190000
C                -0.2400130000        0.1567370000       -0.0418920000
F                -0.6412710000       -0.8603410000       -0.7612610000
F                -0.7275900000        1.2722930000       -0.5851000000
S                 1.5780700000        0.3018420000        0.3727280000
O                 1.3041070000        0.7733860000        1.7590090000
O                 2.6541140000       -0.4990620000       -0.1382060000
O                 1.8238590000        1.7351180000       -0.3683580000
F                 0.7639250000       -1.4210100000        1.1620860000
F                -1.0363460000        1.2283840000        1.9728780000
F                -1.3074230000       -0.8317760000        1.9949290000
H                 2.5361280000        1.6289150000       -1.0092390000


