%mem=28GB
%chk=2003846667223680600001_r13_insertion_ROR_12_8_5_6
%nprocshared=8
#P wb97xd/6-311++G(d,p) ! ASE formatted method and basis
Symm(None)
scf(xqc)
pop(None)
opt(NoFreeze,TS,CalcAll,NoEigentest,MaxCycle=999)

Gaussian input prepared by ASE

0 1
C                 3.6405370000        2.1680870000        1.8610560000
C                 3.1762360000        0.8337710000        1.1801900000
F                 4.2588230000        0.1502410000        0.7592960000
F                 2.6441740000        0.0226200000        2.1137220000
S                 2.0081330000        1.0677650000       -0.1853340000
O                 0.5362610000        2.1379560000        0.6442930000
O                 2.6285820000        1.3847730000       -1.3078430000
O                 0.9186060000        0.1186180000       -0.0647020000
F                 3.6107570000        3.2011380000        1.0464470000
F                 2.8732940000        2.4902490000        2.9107150000
F                 4.8804160000        2.0915730000        2.3214350000
H                 0.0710790000        0.9339710000        0.4892820000

1 2 F
1 9 F
1 10 F
1 11 F
2 3 F
2 4 F
2 5 F
5 6 F
5 7 F
5 8 F
8 12 F


