%mem=28GB
%chk=2003847066703800600001_well
%nprocshared=8
#P wb97xd/6-311++G(d,p) ! ASE formatted method and basis
Symm(None)
scf(xqc)
pop(None)
freq
opt(CalcFC, Tight)

Gaussian input prepared by ASE

0 1
C                -0.7417320000       -0.8075930000        1.0153990000
C                 0.1706880000        0.9676170000       -1.2355690000
F                -0.9377760000        0.3310080000       -1.6710260000
F                -0.1641720000        2.1850990000       -0.8545870000
S                 0.8088770000       -0.0260540000        0.2592820000
O                 1.3515660000        0.8621260000        1.2535180000
O                 1.5766350000       -1.0942270000       -0.3535390000
O                 1.1357880000        1.0222010000       -2.1496910000
F                -0.3907730000       -1.3071350000        2.1854160000
F                -1.6617960000        0.1277120000        1.1839110000
F                -1.2074830000       -1.7666400000        0.2414340000
H                 1.5327010000        0.1471390000       -2.2641460000


