%mem=28GB
%chk=2003846667223680600001_r13_insertion_ROR_3_2_5_6
%nprocshared=8
#P wb97xd/6-311++G(d,p) ! ASE formatted method and basis
Symm(None)
scf(xqc)
pop(None)
opt(NoFreeze,TS,CalcAll,NoEigentest,MaxCycle=999)

Gaussian input prepared by ASE

0 1
C                 1.7630300000       -0.7186780000       -1.1995850000
C                 1.6500730000        0.2128420000        0.1389390000
F                -0.3494740000        0.2469280000        0.1643240000
F                 1.8003990000       -0.6389340000        1.2354170000
S                 1.7972730000        1.6537950000        0.2061900000
O                -0.0974500000        2.2123560000       -0.1069340000
O                 2.7091540000        2.1883230000        1.1917220000
O                 2.4426100000        2.1124100000       -1.2123840000
F                 1.3921880000       -0.0739170000       -2.2751830000
F                 3.0161820000       -1.1233220000       -1.3776120000
F                 1.0119010000       -1.7944340000       -1.0793600000
H                 1.7908640000        2.3553520000       -1.8878940000

1 2 F
1 9 F
1 10 F
1 11 F
2 3 F
2 4 F
2 5 F
5 6 F
5 7 F
5 8 F
8 12 F


