%mem=28GB
%chk=2003846667223680600001_r12_insertion_R_6_5_7
%nprocshared=8
#P wb97xd/6-311++G(d,p) ! ASE formatted method and basis
Symm(None)
scf(xqc)
pop(None)
opt(NoFreeze,TS,CalcAll,NoEigentest,MaxCycle=999)

Gaussian input prepared by ASE

0 1
C                -0.8304020000       -0.0927130000        1.3124660000
C                -0.1588200000        0.3334800000       -0.0258590000
F                -0.6417170000       -0.4243000000       -1.0279200000
F                -0.6231810000        1.5861460000       -0.3565060000
S                 1.5594310000        0.2933670000       -0.1115320000
O                 2.1277110000        0.3124600000        1.4586880000
O                 2.5601940000       -1.1410040000        0.3139580000
O                 2.2361400000        1.4159060000       -0.6585390000
F                -0.5704060000       -1.3326480000        1.6734950000
F                -0.4463580000        0.6711570000        2.3505930000
F                -2.1450720000       -0.0033370000        1.3089440000
H                 2.9829040000        1.9795150000       -0.4194970000

1 2 F
1 9 F
1 10 F
1 11 F
2 3 F
2 4 F
2 5 F
5 6 F
5 7 F
5 8 F
8 12 F


