%mem=28GB
%chk=2003846667223680600001_r12_insertion_R_2_5_8_IRC_R_prod
%nprocshared=8
#P wb97xd/6-311++G(d,p) ! ASE formatted method and basis
Symm(None)
scf(xqc)
pop(None)
freq
opt(CalcFC)

Gaussian input prepared by ASE

0 1
C                -1.2978990000       -0.5284290000        0.5845530000
C                -0.4148470000        0.3485950000       -0.3884030000
F                -0.6615530000        0.0039130000       -1.6572910000
F                -0.7064430000        1.6351240000       -0.2271090000
S                 1.4283130000        0.1359960000       -0.1198320000
O                 1.7595540000        0.7317190000        1.1345370000
O                 1.7635120000       -1.2096140000       -0.4937510000
O                 1.9413880000        1.1375940000       -1.2628110000
F                -0.5288300000       -1.2436090000        1.3989290000
F                -2.0762790000        0.2548990000        1.3154350000
F                -2.0581610000       -1.3561470000       -0.1172930000
H                 2.0513870000        0.6621290000       -2.0967210000


