%mem=28GB
%chk=2003846667223680600001_intra_H_migration_suprafacial_6_12_IRC_F_prod
%nprocshared=8
#P wb97xd/6-311++G(d,p) ! ASE formatted method and basis
Symm(None)
scf(xqc)
pop(None)
freq
opt(CalcFC)

Gaussian input prepared by ASE

0 1
C                 0.8624450000       -1.1284950000       -0.3760610000
C                 0.5924100000        0.2075930000        0.3683180000
F                 0.8174290000        0.0373860000        1.6667140000
F                 1.4143440000        1.1469100000       -0.1040540000
S                -1.1396930000        0.9327920000        0.1238130000
O                -2.1168340000       -0.3339310000        0.0244950000
O                -1.3546490000        1.7678220000        1.2660640000
O                -1.2246180000        1.4119550000       -1.2322990000
F                 0.1956560000       -2.1163270000        0.2053160000
F                 0.4919720000       -1.0402910000       -1.6491690000
F                 2.1616250000       -1.3949720000       -0.3238410000
H                -2.4186540000       -0.3158610000       -0.8951850000


