%mem=28GB
%chk=2003846667223680600001_r12_insertion_R_1_2_5_IRC_F_prod
%nprocshared=8
#P wb97xd/6-311++G(d,p) ! ASE formatted method and basis
Symm(None)
scf(xqc)
pop(None)
freq
opt(CalcFC)

Gaussian input prepared by ASE

0 1
C                -1.2141830000       -0.6306300000        0.5856360000
C                -0.5117210000        0.1829630000       -0.4985720000
F                -0.6660110000       -0.4429150000       -1.6679640000
F                -1.1044230000        1.3712210000       -0.5962950000
S                 1.4185000000        0.3693250000       -0.0337690000
O                 1.5815880000        1.2613580000        1.0735860000
O                 2.1256880000       -0.8855960000       -0.0599850000
O                 1.7412000000        1.1599540000       -1.3931070000
F                -0.6496960000       -1.8287350000        0.6632210000
F                -1.0866770000       -0.0085000000        1.7492770000
F                -2.5002650000       -0.7559490000        0.2767670000
H                 2.3172450000        0.6253960000       -1.9540670000


