%mem=28GB
%chk=2003846667223680600001_r12_insertion_R_6_5_8_IRC_R_prod
%nprocshared=8
#P wb97xd/6-311++G(d,p) ! ASE formatted method and basis
Symm(None)
scf(xqc)
pop(None)
freq
opt(CalcFC)

Gaussian input prepared by ASE

0 1
C                -1.2651040000       -0.3082450000        0.7809300000
C                -0.4158540000        0.3736320000       -0.3633520000
F                -0.9025530000        0.0319630000       -1.5518950000
F                -0.4732270000        1.7042620000       -0.2375950000
S                 1.3990760000       -0.0946380000       -0.3262560000
O                 1.9603190000        0.4592650000        0.8742730000
O                 1.5052590000       -1.4657300000       -0.7091870000
O                 1.8848230000        0.7797050000       -1.5802160000
F                -0.4944770000       -1.0808480000        1.5394770000
F                -1.8203440000        0.6198900000        1.5464780000
F                -2.2207840000       -1.0545200000        0.2485510000
H                 2.1509700000        1.6613040000       -1.2877750000


