%mem=28GB
%chk=2003716027184320770001_well
%nprocshared=8
#P wb97xd/6-311++G(d,p) ! ASE formatted method and basis
Symm(None)
scf(xqc)
pop(None)
freq
opt(CalcFC, Tight)

Gaussian input prepared by ASE

0 1
C                -1.2763600000       -0.4608260000        0.6096330000
C                -0.2759650000        0.1664010000       -0.3853160000
F                -0.6785650000        0.0085680000       -1.6207890000
F                -0.3299340000        1.5899130000       -0.1586230000
S                 1.5699120000       -0.4357400000       -0.2002040000
O                 0.8501650000        2.1243970000        0.8320740000
O                 1.5840590000       -1.6222240000       -1.0420320000
O                 2.1575970000        0.7787300000       -1.1224400000
F                -1.3183230000       -1.7705010000        0.3958050000
F                -0.8791080000       -0.2347640000        1.8544330000
F                -2.4913650000        0.0462180000        0.4393290000
H                 2.1224000000        1.5907560000       -0.5808330000


