%mem=28GB
%chk=2003846667223680600001_r12_insertion_R_6_5_8_IRC_F
%nprocshared=8
#P wb97xd/6-311++G(d,p) ! ASE formatted method and basis
Symm(None)
scf(xqc)
pop(None)
geom(AllCheck,NoKeepConstants)
guess(Read)
irc(RCFC,forward,MaxPoints=100,StepSize=2)

Gaussian input prepared by ASE

0 1
C                -1.2651380000       -0.3083280000        0.7808710000
C                -0.4152650000        0.3761410000       -0.3613490000
F                -0.9040250000        0.0404950000       -1.5507970000
F                -0.4691770000        1.7063390000       -0.2301710000
S                 1.3986380000       -0.0963850000       -0.3276470000
O                 1.9639910000        0.4566580000        0.8713130000
O                 1.5004780000       -1.4679710000       -0.7101010000
O                 1.8838780000        0.7763510000       -1.5829400000
F                -0.4923210000       -1.0710520000        1.5471050000
F                -1.8324810000        0.6183580000        1.5393330000
F                -2.2114360000       -1.0648390000        0.2463930000
H                 2.1539930000        1.6569170000       -1.2910370000


