%mem=28GB
%chk=2003846667223680600001_intra_H_migration_6_12_IRC_F_prod
%nprocshared=8
#P wb97xd/6-311++G(d,p) ! ASE formatted method and basis
Symm(None)
scf(xqc)
pop(None)
freq
opt(CalcFC)

Gaussian input prepared by ASE

0 1
C                 0.5101030000       -1.3030160000       -0.4472650000
C                 0.6684090000        0.0587090000        0.2826350000
F                 1.0163150000       -0.1605770000        1.5460790000
F                 1.6208360000        0.7721960000       -0.3213420000
S                -0.8570420000        1.1798370000        0.2395220000
O                -2.1126900000        0.1856070000        0.3025040000
O                -0.7156670000        2.0398560000        1.3746480000
O                -1.0011690000        1.6678210000       -1.1084460000
F                -0.2885150000       -2.1016710000        0.2475030000
F                 0.0037460000       -1.1280370000       -1.6633790000
F                 1.7032420000       -1.8739910000       -0.5564370000
H                -2.5185030000        0.2772820000       -0.5716500000


