%mem=28GB
%chk=2003846667223680600001_R_Addition_MultipleBond_5_2_1_IRC_F_prod
%nprocshared=8
#P mp2/6-31G ! ASE formatted method and basis
Symm(None)
scf(xqc)
pop(None)
guess(Mix,Always)
freq
opt(CalcFC)

Gaussian input prepared by ASE

0 1
C                -1.1788290000       -0.4806180000        0.8579300000
C                -0.5657660000        0.2090930000       -0.3704370000
F                -0.9445000000       -0.4591450000       -1.5264840000
F                -0.9418550000        1.5447940000       -0.4001640000
S                 1.4376200000        0.1953330000       -0.3506620000
O                 1.9740310000        1.1221130000        0.8286880000
O                 1.9714800000       -1.2947450000       -0.5316580000
O                 1.4408350000        1.0874770000       -1.9369260000
F                -0.7640060000       -1.8069710000        0.9076020000
F                -0.7614200000        0.1652730000        2.0164910000
F                -2.5666780000       -0.4369740000        0.7835380000
H                 2.3798300000        1.2363830000       -2.2269450000


