%mem=28GB
%chk=2003885976044371740001_well
%nprocshared=8
#P wb97xd/6-311++G(d,p) ! ASE formatted method and basis
Symm(None)
scf(xqc)
pop(None)
freq
opt(CalcFC, Tight)

Gaussian input prepared by ASE

0 1
C                 0.2840580000       -1.3617420000       -0.7845420000
C                 0.6833690000       -0.4263940000        0.3203850000
F                -2.3070010000        0.7501890000       -0.0893120000
F                 0.9635890000       -1.0719400000        1.4704510000
S                 0.1027470000        1.0904660000        0.5453280000
O                -1.5366110000        1.4785520000        0.8383150000
O                 0.6785730000        1.8143060000        1.6363360000
O                 0.1207480000        1.7734200000       -0.8797650000
F                 0.1185130000       -0.7125790000       -1.9481550000
F                 1.2514500000       -2.2676590000       -0.9511280000
F                -0.8451610000       -2.0353830000       -0.5350150000
H                 0.9253700000        1.5360360000       -1.3606430000


