%mem=28GB
%chk=2003846667223680600001_r12_insertion_R_9_1_2_IRC_F_prod
%nprocshared=8
#P wb97xd/6-311++G(d,p) ! ASE formatted method and basis
Symm(None)
scf(xqc)
pop(None)
freq
opt(CalcFC)

Gaussian input prepared by ASE

0 1
C                -2.7906560000       -0.0167980000        0.2021260000
C                -0.0027350000        0.2119070000       -0.2032350000
F                -0.4785230000       -0.2071420000       -1.3664390000
F                -0.3644860000        1.4600590000        0.0075370000
S                 1.8064900000        0.0049470000       -0.1525360000
O                 2.2459220000        0.6308400000        1.0517250000
O                 2.0496820000       -1.3690450000       -0.4895940000
O                 2.2064380000        0.9469890000       -1.3834660000
F                -0.4367610000       -0.5677250000        0.7842810000
F                -2.7719050000        0.3015040000        1.4617090000
F                -2.8190370000       -1.3166460000        0.1781930000
H                 2.2784280000        0.4262960000       -2.1941540000


