%mem=28GB
%chk=2003686066703381580601_well
%nprocshared=8
#P wb97xd/6-311++G(d,p) ! ASE formatted method and basis
Symm(None)
scf(xqc)
pop(None)
freq
opt(CalcFC, Tight)

Gaussian input prepared by ASE

0 1
C                 1.3682360000        0.6421180000        0.6952550000
C                 0.2564120000       -0.3998290000        0.4041810000
F                 0.7533510000       -1.3693280000       -0.3592270000
F                -0.1706410000       -0.9053030000        1.5664900000
S                -1.2518610000        0.4322330000       -0.4345310000
O                -3.2701080000       -0.9722600000       -0.8858080000
O                -0.7851000000        0.9483670000       -1.7190340000
O                -1.8814960000       -1.1315080000       -0.6268790000
F                 1.9479840000        1.0432790000       -0.4242500000
F                 0.8281830000        1.7000070000        1.3082270000
F                 2.2885210000        0.1116940000        1.4925540000
H                -3.3168100000       -1.2187140000       -1.8183370000


