%mem=28GB
%chk=2003846667223680600001_r12_insertion_R_8_5_2_IRC_R_prod
%nprocshared=8
#P wb97xd/6-311++G(d,p) ! ASE formatted method and basis
Symm(None)
scf(xqc)
pop(None)
freq
opt(CalcFC)

Gaussian input prepared by ASE

0 1
C                -1.2868810000       -0.2995930000        0.7481270000
C                -0.4058070000        0.3667860000       -0.3811280000
F                -0.8565060000        0.0054050000       -1.5780050000
F                -0.4699230000        1.6990440000       -0.2778200000
S                 1.4083370000       -0.0957840000       -0.2834630000
O                 1.9328690000        0.4787610000        0.9239320000
O                 1.5289570000       -1.4725110000       -0.6411280000
O                 1.9285580000        0.7598390000       -1.5364830000
F                -0.5371930000       -1.0581420000        1.5410560000
F                -1.8667050000        0.6387620000        1.4823420000
F                -2.2246450000       -1.0567400000        0.1994740000
H                 2.1839650000        1.6467270000       -1.2505310000


