%mem=28GB
%chk=2003846667223680600001_r12_insertion_R_1_2_3_IRC_R_prod
%nprocshared=8
#P wb97xd/6-311++G(d,p) ! ASE formatted method and basis
Symm(None)
scf(xqc)
pop(None)
freq
opt(CalcFC)

Gaussian input prepared by ASE

0 1
C                -1.3287390000       -0.5981850000       -0.2230770000
C                -0.3774610000        0.4498030000        0.3746110000
F                -1.1304370000       -0.5843990000       -1.5388640000
F                -0.7063050000        1.6437920000       -0.1329170000
S                 1.4496610000        0.1402930000        0.0427760000
O                 2.0924890000        1.1423660000        0.8452960000
O                 1.6721620000       -1.2659910000        0.1532680000
O                 1.6752300000        0.5073620000       -1.4997710000
F                -1.1097480000       -1.8059350000        0.2639350000
F                -0.5081560000        0.4659270000        1.6985710000
F                -2.5867180000       -0.2616580000        0.0479080000
H                 1.8768310000        1.4482980000       -1.5903430000


