%mem=28GB
%chk=2003846667223680600001_intra_H_migration_5_12_IRC_F_prod
%nprocshared=8
#P wb97xd/6-311++G(d,p) ! ASE formatted method and basis
Symm(None)
scf(xqc)
pop(None)
freq
opt(CalcFC)

Gaussian input prepared by ASE

0 1
C                -1.1492000000        0.0973720000        0.9098350000
C                -0.5098230000       -0.2262580000       -0.4680150000
F                -0.7846490000       -1.4851390000       -0.7922290000
F                -1.0207290000        0.5903690000       -1.3916230000
S                 1.3599870000        0.0534550000       -0.5758820000
O                 1.9277400000       -0.3316720000        0.8727720000
O                 1.8002180000       -0.7982940000       -1.6383920000
O                 1.5897460000        1.4756410000       -0.5564540000
F                -0.8014750000       -0.8216850000        1.8002010000
F                -0.7589180000        1.2927320000        1.3396120000
F                -2.4702490000        0.0967750000        0.7818640000
H                 2.2280960000        0.5159750000        1.2312580000


