%mem=28GB
%chk=2003846667223680600001_r12_insertion_R_1_2_3
%nprocshared=8
#P wb97xd/6-311++G(d,p) ! ASE formatted method and basis
Symm(None)
scf(xqc)
pop(None)
opt(NoFreeze,TS,CalcAll,NoEigentest,MaxCycle=999)

Gaussian input prepared by ASE

0 1
C                -0.9953150000       -0.1960550000        1.1903050000
C                 0.1297130000        0.7628570000        0.4131350000
F                -0.8256900000       -0.9780620000       -0.5332920000
F                -0.3929880000        1.6600860000       -0.2883600000
S                 1.8566600000        0.3592970000        0.3516190000
O                 2.4114180000        0.8006220000        1.6149430000
O                 2.0966120000       -0.9102130000       -0.2742300000
O                 2.3590490000        1.4573510000       -0.7197080000
F                -0.5900010000       -1.3821080000        1.5349480000
F                -1.0787740000        0.4302230000        2.4760210000
F                -2.2170020000       -0.0770740000        0.7844030000
H                 3.2967440000        1.6711060000       -0.7314960000

1 2 F
1 9 F
1 10 F
1 11 F
2 3 F
2 4 F
2 5 F
5 6 F
5 7 F
5 8 F
8 12 F


