%mem=28GB
%chk=2003846667223680600001_Intra_Diels_alder_R_6_7
%nprocshared=8
#P wb97xd/6-311++G(d,p) ! ASE formatted method and basis
Symm(None)
scf(xqc)
pop(None)
opt(NoFreeze,TS,CalcAll,NoEigentest,MaxCycle=999,Cartesian)

Gaussian input prepared by ASE

0 1
C                -0.9315200000       -0.1125670000        1.2211010000
C                 0.0085330000        0.4145740000        0.0820350000
F                -0.2934350000       -0.1811230000       -1.0664880000
F                -0.1580790000        1.7369380000       -0.0535570000
S                 1.8254400000        0.1241500000        0.4379180000
O                 2.1258350000       -1.2458230000        0.1771110000
O                 2.1112500000        0.7934920000        1.6770080000
O                 2.4405820000        0.9715180000       -0.7761700000
F                -0.3674580000       -1.1369510000        1.8518260000
F                -1.1735440000        0.8526150000        2.0943490000
F                -2.0804480000       -0.5167760000        0.6947130000
H                 2.5432760000        1.8979840000       -0.5215610000



