%mem=28GB
%chk=2003846667223680600001_r12_insertion_R_6_5_7_IRC_R_prod
%nprocshared=8
#P wb97xd/6-311++G(d,p) ! ASE formatted method and basis
Symm(None)
scf(xqc)
pop(None)
freq
opt(CalcFC)

Gaussian input prepared by ASE

0 1
C                -1.1638710000        0.0766360000        0.9121600000
C                -0.6335070000        0.0168350000       -0.5438710000
F                -1.0946590000       -1.1148550000       -1.1089800000
F                -1.1111700000        1.0650260000       -1.2305460000
S                 1.2540330000       -0.0440190000       -0.9061090000
O                 1.6556320000       -1.1545070000        0.1311940000
O                 2.9651070000       -0.5939600000       -0.3516790000
O                 1.4441540000        1.4113600000       -0.2291850000
F                -0.8238710000       -1.0282370000        1.5664840000
F                -0.6834650000        1.1297180000        1.5589980000
F                -2.4938430000        0.1646630000        0.8894800000
H                 2.3943700000        1.5520570000       -0.1188900000


