%mem=28GB
%chk=2003846667223680600001_Intra_Diels_alder_R_6_7_IRC_R
%nprocshared=8
#P wb97xd/6-311++G(d,p) ! ASE formatted method and basis
Symm(None)
scf(xqc)
pop(None)
geom(AllCheck,NoKeepConstants)
guess(Read)
irc(RCFC,reverse,MaxPoints=100,StepSize=2)

Gaussian input prepared by ASE

0 1
C                -1.3376210000       -0.2938210000        0.6558680000
C                -0.3796180000        0.3452300000       -0.4255100000
F                -0.7291380000       -0.0682350000       -1.6392570000
F                -0.4707750000        1.6790720000       -0.3789390000
S                 1.4276540000       -0.0815830000       -0.1680750000
O                 1.5952320000       -1.4692300000       -0.4585840000
O                 1.8479720000        0.5493030000        1.0518380000
O                 2.0324290000        0.7324540000       -1.4108260000
F                -0.6413780000       -1.0017490000        1.5391900000
F                -1.9936640000        0.6608350000        1.2993480000
F                -2.2124170000       -1.0939620000        0.0659100000
H                 2.2524690000        1.6341440000       -1.1422960000


