%mem=28GB
%chk=2003846667223680600001_r12_insertion_R_5_2_1_IRC_R_prod
%nprocshared=8
#P wb97xd/6-311++G(d,p) ! ASE formatted method and basis
Symm(None)
scf(xqc)
pop(None)
freq
opt(CalcFC)

Gaussian input prepared by ASE

0 1
C                -0.6365490000       -0.6731580000        1.0473300000
C                -0.1020830000        0.7727540000       -1.2074130000
F                -0.8229910000        0.1004760000       -2.1037220000
F                -0.7900970000        1.8758860000       -0.9800970000
S                 0.8324420000       -0.0926490000        0.1502770000
O                 1.4469930000        0.8458160000        1.0511160000
O                 1.4379730000       -1.2988700000       -0.3676830000
O                 1.4039150000        1.0234740000       -1.4898080000
F                -0.2854020000       -1.3542550000        2.1125460000
F                -1.3659680000        0.3888940000        1.3865780000
F                -1.3728220000       -1.4236390000        0.2285250000
H                 1.7271110000        0.4765230000       -2.2172480000


