%mem=28GB
%chk=2003846667223680600001_R_Addition_MultipleBond_5_8_12
%nprocshared=8
#P mp2/6-31G ! ASE formatted method and basis
Symm(None)
scf(xqc)
pop(None)
guess(Mix,Always)
opt(NoFreeze,TS,CalcAll,NoEigentest,MaxCycle=999)

Gaussian input prepared by ASE

0 1
C                -0.7787099236        0.2447073975        1.3324912696
C                -0.1161267224       -0.0523165073       -0.0440690224
F                -0.3939241283       -1.3061907848       -0.3995599257
F                -0.5680757762        0.8084302540       -0.9549030049
S                 1.7570910357        0.0793679606       -0.0691491489
O                 2.2827566795       -0.3125881942        1.2091740779
O                 2.1799260283       -0.5334457317       -1.2865378187
O                 1.9000030835        1.6727597413       -0.1216224755
F                -0.5336722689       -0.7432515129        2.1733453336
F                -0.2834595721        1.3863540909        1.8297682146
F                -2.0874009294        0.3751051673        1.1631132788
H                 2.6460765043        1.6442642244        1.0450342232

1 2 F
1 9 F
1 10 F
1 11 F
2 3 F
2 4 F
2 5 F
5 6 F
5 7 F
5 8 F
8 12 F
5 8 12 F


