%mem=28GB
%chk=2003846667223680600001_r13_insertion_ROR_12_8_5_6_IRC_R_prod
%nprocshared=8
#P wb97xd/6-311++G(d,p) ! ASE formatted method and basis
Symm(None)
scf(xqc)
pop(None)
freq
opt(CalcFC)

Gaussian input prepared by ASE

0 1
C                 1.2278980000        0.7190670000        0.7978450000
C                 0.4415090000       -0.5170660000        0.3093420000
F                 1.2262780000       -1.2885510000       -0.4257300000
F                -0.0522010000       -1.2019020000        1.3108320000
S                -1.1192950000       -0.0869790000       -0.8615750000
O                -3.2571350000       -0.1814690000       -0.5739190000
O                -0.6025370000        0.7965010000       -1.8896660000
O                -1.4692280000       -1.4660700000       -1.0518760000
F                 1.8672280000        1.3012970000       -0.1995150000
F                 0.3756240000        1.5750160000        1.3481410000
F                 2.1090970000        0.3241410000        1.7103030000
H                -3.9659550000        0.4780370000       -0.6354240000


