%mem=28GB
%chk=2003846667223680600001_r12_insertion_R_12_8_5_IRC_F
%nprocshared=8
#P wb97xd/6-311++G(d,p) ! ASE formatted method and basis
Symm(None)
scf(xqc)
pop(None)
geom(AllCheck,NoKeepConstants)
guess(Read)
irc(RCFC,forward,MaxPoints=100,StepSize=2)

Gaussian input prepared by ASE

0 1
C                -0.8565660000       -0.1862670000        1.2891670000
C                -0.0807290000        0.3339790000        0.0436080000
F                -0.3902870000       -0.4081120000       -1.0176120000
F                -0.4074120000        1.6021100000       -0.1845580000
S                 1.7834090000        0.2622840000        0.2412080000
O                 2.2023010000        1.4820510000        1.0484770000
O                 2.1303620000       -1.0545890000        0.6706490000
O                 2.3372090000        0.8337410000       -1.0566980000
F                -0.7323630000       -1.4979520000        1.4011220000
F                -0.3871070000        0.3976470000        2.3864830000
F                -2.1415220000        0.1178830000        1.1514080000
H                 2.5931220000        1.7152500000       -0.1549550000


