%mem=28GB
%chk=2003846667223680600001_r12_insertion_R_1_2_3_IRC_F_prod
%nprocshared=8
#P wb97xd/6-311++G(d,p) ! ASE formatted method and basis
Symm(None)
scf(xqc)
pop(None)
freq
opt(CalcFC)

Gaussian input prepared by ASE

0 1
C                -1.2848390000       -0.4541970000        0.5828480000
C                -0.4253560000        0.3098840000       -0.4356630000
F                -0.6844620000       -0.1377850000       -1.6606720000
F                -0.7269790000        1.6089690000       -0.3542750000
S                 1.4208010000        0.1204760000       -0.0813700000
O                 1.8764400000        1.1397300000        0.8220980000
O                 1.6636770000       -1.2707310000        0.1335330000
O                 1.9057840000        0.4985080000       -1.5632100000
F                -1.0974610000       -1.7600280000        0.5098520000
F                -0.9335830000       -0.0024410000        1.7844940000
F                -2.5708200000       -0.2046740000        0.3600330000
H                 2.2156630000        1.4130160000       -1.5822310000


