%mem=28GB
%chk=2003846667223680600001_intra_H_migration_5_12_IRC_R_prod
%nprocshared=8
#P wb97xd/6-311++G(d,p) ! ASE formatted method and basis
Symm(None)
scf(xqc)
pop(None)
freq
opt(CalcFC)

Gaussian input prepared by ASE

0 1
C                -1.1466460000        0.0958190000        0.9105430000
C                -0.5098810000       -0.2142500000       -0.4756170000
F                -0.7811310000       -1.4793340000       -0.7933600000
F                -1.0255700000        0.5959740000       -1.3973040000
S                 1.3752070000       -0.0478990000       -0.5001780000
O                 1.8914780000       -0.3429260000        0.8140330000
O                 1.7916690000       -0.7443220000       -1.6790080000
O                 1.6168850000        1.5339110000       -0.5342640000
F                -0.8028350000       -0.8208260000        1.7986390000
F                -0.7583980000        1.2951220000        1.3386740000
F                -2.4691330000        0.0972010000        0.7810180000
H                 2.0156970000        1.7197260000        0.3278620000


