%mem=28GB
%chk=2003846667223680600001_r12_insertion_R_3_2_1_IRC_R_prod
%nprocshared=8
#P wb97xd/6-311++G(d,p) ! ASE formatted method and basis
Symm(None)
scf(xqc)
pop(None)
opt(CalcAll,Cartesian)

Gaussian input prepared by ASE

0 1
C                -1.9440350000       -1.2135520000        0.4732880000
C                 0.4524830000        1.8533990000        0.3114300000
F                -1.3655270000       -0.3096860000       -0.3180670000
F                 0.0176210000        2.3343500000       -0.7930000000
S                 1.8703180000        0.6954400000       -0.1607510000
O                 3.0576690000        1.4800420000        0.0631280000
O                 1.6311640000       -0.5636000000        0.4822300000
O                 1.7286120000        0.4388680000       -1.7526460000
F                -1.6613430000       -2.4174460000        0.0259700000
F                -1.5074560000       -1.0730510000        1.7031530000
F                -3.2506950000       -1.0238660000        0.4426320000
H                 2.3166470000        1.0324680000       -2.2363200000


