%mem=28GB
%chk=2003846667223680600001_R_Addition_MultipleBond_5_2_3
%nprocshared=8
#P mp2/6-31G ! ASE formatted method and basis
Symm(None)
scf(xqc)
pop(None)
guess(Mix,Always)
opt(NoFreeze,TS,CalcAll,NoEigentest,MaxCycle=999)

Gaussian input prepared by ASE

0 1
C                -0.8344546638        0.3466491138        1.3157451823
C                -0.0566648081        0.0726209634        0.0071019322
F                -0.0972450156       -1.3176515158       -0.2443471548
F                -0.5631338321        0.7115583373       -1.0317198043
S                 1.8123290530        0.0246640655       -0.0319919646
O                 2.3012757465       -0.9472817261        0.9071803358
O                 2.2035802306       -0.0195671910       -1.4058390966
O                 1.9952789045        1.5005547128        0.5614572937
F                -0.2155221975       -0.2054903769        2.3458079060
F                -0.9285288783        1.6705251034        1.5137010629
F                -2.0558842576       -0.1640723737        1.2132213157
H                 2.8744421667        1.8894232789        0.6508014774

1 2 F
1 9 F
1 10 F
1 11 F
2 3 F
2 4 F
2 5 F
5 6 F
5 7 F
5 8 F
8 12 F
5 2 3 F


