%mem=28GB
%chk=2003846667223680600001_r13_insertion_ROR_1_2_5_6
%nprocshared=8
#P wb97xd/6-311++G(d,p) ! ASE formatted method and basis
Symm(None)
scf(xqc)
pop(None)
opt(NoFreeze,TS,CalcAll,NoEigentest,MaxCycle=999)

Gaussian input prepared by ASE

0 1
C                -0.1057950000        0.1730850000        0.3581520000
C                 1.7635040000        0.1758100000       -0.3529850000
F                 2.2520620000       -0.8509950000        0.3641670000
F                 1.4498690000       -0.4025670000       -1.5216890000
S                 2.1954250000        1.5557120000       -0.2442400000
O                 0.2634640000        2.0671820000       -0.1672410000
O                 3.0869840000        1.9762340000        0.7234630000
O                 2.7726450000        2.1671920000       -1.5657290000
F                -0.1792040000        0.8201050000        1.4259880000
F                -0.9218750000        0.4111080000       -0.5868200000
F                -0.1239820000       -1.0726890000        0.6157990000
H                 3.7009140000        2.4348810000       -1.6062790000

1 2 F
1 9 F
1 10 F
1 11 F
2 3 F
2 4 F
2 5 F
5 6 F
5 7 F
5 8 F
8 12 F


