%mem=28GB
%chk=2003846667223680600001_r13_insertion_ROR_3_2_5_6_IRC_F_prod
%nprocshared=8
#P wb97xd/6-311++G(d,p) ! ASE formatted method and basis
Symm(None)
scf(xqc)
pop(None)
freq
opt(CalcFC)

Gaussian input prepared by ASE

0 1
C                 0.2490860000       -1.3231060000       -0.8439460000
C                -0.0040400000       -0.4121830000        0.3986190000
F                -1.8588640000        0.1130820000       -0.3205800000
F                 0.2594960000       -1.0750460000        1.4781240000
S                 0.0997710000        1.4002880000        0.7028310000
O                -1.1634330000        1.7952740000        1.2197370000
O                 1.2984480000        1.6594200000        1.4351830000
O                 0.3422120000        1.8115290000       -0.8065080000
F                 0.1483060000       -0.6319670000       -1.9536160000
F                 1.4365560000       -1.9387940000       -0.8494210000
F                -0.6839370000       -2.2507830000       -0.7435380000
H                -0.4906830000        1.6847220000       -1.2941310000


