%mem=28GB
%chk=2003846667223680600001_intra_H_migration_5_12_IRC_F
%nprocshared=8
#P wb97xd/6-311++G(d,p) ! ASE formatted method and basis
Symm(None)
scf(xqc)
pop(None)
geom(AllCheck,NoKeepConstants)
guess(Read)
irc(RCFC,forward,MaxPoints=100,StepSize=2)

Gaussian input prepared by ASE

0 1
C                -0.7484240000        0.3163330000        1.3193830000
C                -0.1147530000       -0.0037850000       -0.0672770000
F                -0.3856770000       -1.2650570000       -0.3859840000
F                -0.6249630000        0.8121080000       -0.9879990000
S                 1.7530810000        0.2065480000       -0.1474010000
O                 2.3182460000       -0.0461260000        1.2451160000
O                 2.1973800000       -0.5621210000       -1.2644240000
O                 2.0270960000        1.7010700000       -0.0727970000
F                -0.4027460000       -0.6028110000        2.2062970000
F                -0.3596920000        1.5121940000        1.7460840000
F                -2.0701240000        0.3153760000        1.1882520000
H                 2.4609990000        1.2143030000        1.0390450000


