%mem=28GB
%chk=2003846667223680600001_r12_insertion_R_6_5_2
%nprocshared=8
#P wb97xd/6-311++G(d,p) ! ASE formatted method and basis
Symm(None)
scf(xqc)
pop(None)
opt(NoFreeze,TS,CalcAll,NoEigentest,MaxCycle=999)

Gaussian input prepared by ASE

0 1
C                -0.7003610000       -0.1517710000        1.4101530000
C                 0.1001050000        0.4390000000        0.2065450000
F                -0.6211470000        0.1465310000       -0.9142650000
F                 0.0108680000        1.7864060000        0.1701790000
S                 1.8315050000       -0.0348750000        0.0737100000
O                 1.4657960000        0.7866140000        1.4809340000
O                 2.2196240000       -1.2658240000       -0.2829720000
O                 2.4335240000        0.9913470000       -0.9009350000
F                -0.1363620000       -1.2191450000        1.9335890000
F                -0.8749750000        0.7187300000        2.4042650000
F                -1.9237900000       -0.5359660000        1.0557640000
H                 2.2456350000        1.9369820000       -0.8186810000

1 2 F
1 9 F
1 10 F
1 11 F
2 3 F
2 4 F
2 5 F
5 6 F
5 7 F
5 8 F
8 12 F


