%mem=28GB
%chk=2003846667223680600001_r12_insertion_R_5_2_1
%nprocshared=8
#P wb97xd/6-311++G(d,p) ! ASE formatted method and basis
Symm(None)
scf(xqc)
pop(None)
opt(NoFreeze,TS,CalcAll,NoEigentest,MaxCycle=999)

Gaussian input prepared by ASE

0 1
C                -0.3368850000       -0.3080650000        1.4899770000
C                 0.0108140000        0.7830260000       -0.3884850000
F                -0.5767260000        0.2198540000       -1.3812470000
F                -0.4458340000        1.9831740000       -0.2937190000
S                 1.2424920000        0.1219970000        0.5252830000
O                 1.8028820000        0.9713680000        1.5862170000
O                 1.5601300000       -1.2676570000        0.1484990000
O                 2.1209210000        0.8338540000       -0.6517480000
F                 0.0602190000       -0.9343290000        2.4317890000
F                -0.9756180000        0.6747840000        1.9160130000
F                -1.1608860000       -1.0205620000        0.8719120000
H                 2.7489160000        1.5405920000       -0.4361950000

1 2 F
1 9 F
1 10 F
1 11 F
2 3 F
2 4 F
2 5 F
5 6 F
5 7 F
5 8 F
8 12 F


