%mem=28GB
%chk=2003846667223680600001_r12_insertion_R_2_1_9_IRC_F_prod
%nprocshared=8
#P wb97xd/6-311++G(d,p) ! ASE formatted method and basis
Symm(None)
scf(xqc)
pop(None)
freq
opt(CalcFC)

Gaussian input prepared by ASE

0 1
C                -0.8596010000        0.1798030000        0.9146860000
C                -0.7324730000        0.0258010000       -0.6609810000
F                -1.2033610000       -1.0227260000       -1.2790700000
F                -1.1066750000        1.1193920000       -1.2797710000
S                 1.1268370000       -0.0746210000       -0.2692100000
O                 0.4820520000        0.4274490000        1.2176350000
O                 2.4240020000       -0.5884710000       -0.6622180000
O                 1.3791640000        1.4981780000       -0.7360540000
F                 0.6495450000       -1.6620120000        0.2785180000
F                -1.5781590000        1.2344040000        1.2770870000
F                -1.3803730000       -0.8816530000        1.5065200000
H                 2.2718240000        1.5614200000       -1.0920470000


