%mem=28GB
%chk=2003846667223680600001_r13_insertion_ROR_12_8_5_6_IRC_F_prod
%nprocshared=8
#P wb97xd/6-311++G(d,p) ! ASE formatted method and basis
Symm(None)
scf(xqc)
pop(None)
freq
opt(CalcFC)

Gaussian input prepared by ASE

0 1
C                 1.2291300000        0.6949510000        0.7853080000
C                 0.4511570000       -0.5519500000        0.2486120000
F                 1.2789750000       -1.3348660000       -0.4316750000
F                -0.0532900000       -1.2108940000        1.2986470000
S                -1.0138560000        0.1196890000       -0.7593050000
O                -3.2426960000       -0.4731890000       -0.6403600000
O                -0.5118600000        0.7030720000       -2.0010160000
O                -1.8682570000       -1.2663740000       -0.9555620000
F                 1.8722320000        1.3013250000       -0.2003810000
F                 0.3789260000        1.5598500000        1.3426820000
F                 2.1077270000        0.3146990000        1.7059750000
H                -3.8615170000       -0.9755590000       -1.1942820000


