%mem=28GB
%chk=2003846667223680600001_r13_insertion_ROR_1_2_5_6_IRC_R_prod
%nprocshared=8
#P wb97xd/6-311++G(d,p) ! ASE formatted method and basis
Symm(None)
scf(xqc)
pop(None)
freq
opt(CalcFC)

Gaussian input prepared by ASE

0 1
C                -1.3858830000       -0.5403120000        0.3356510000
C                 0.3353470000       -0.7062330000       -0.3278820000
F                 1.0667240000       -1.6610060000        0.2553690000
F                 0.4000090000       -0.9985970000       -1.6339070000
S                 1.0478700000        0.9747550000        0.0444460000
O                -0.0929930000        1.5909740000        0.6348760000
O                 2.3196820000        0.9267600000        0.7073570000
O                 1.1949560000        1.6545840000       -1.3989540000
F                -2.0545140000        0.4729520000        0.9237570000
F                -2.1042570000       -0.7809150000       -0.7488500000
F                -1.4003410000       -1.4840830000        1.2625970000
H                 2.1071950000        1.6192240000       -1.7139030000


