%mem=28GB
%chk=2003846667223680600001_r12_insertion_R_6_5_2_IRC_R_prod
%nprocshared=8
#P wb97xd/6-311++G(d,p) ! ASE formatted method and basis
Symm(None)
scf(xqc)
pop(None)
freq
opt(CalcFC)

Gaussian input prepared by ASE

0 1
C                -1.2300220000       -0.3365740000        0.8239890000
C                -0.4334400000        0.3769170000       -0.3387470000
F                -0.9641200000        0.0547670000       -1.5138440000
F                -0.4977770000        1.7040730000       -0.1832360000
S                 1.3856640000       -0.0741660000       -0.3834800000
O                 1.9892790000        0.4602580000        0.8052270000
O                 1.4887340000       -1.4359620000       -0.7990480000
O                 1.8133230000        0.8305370000       -1.6370740000
F                -0.4226400000       -1.1168970000        1.5349400000
F                -1.7625130000        0.5701910000        1.6302370000
F                -2.1994820000       -1.0812150000        0.3147490000
H                 2.0829870000        1.7084870000       -1.3369760000


