%mem=28GB
%chk=2003846667223680600001_r12_insertion_R_3_2_1_IRC_R
%nprocshared=8
#P wb97xd/6-311++G(d,p) ! ASE formatted method and basis
Symm(None)
scf(xqc)
pop(None)
geom(AllCheck,NoKeepConstants)
guess(Read)
irc(RCFC,reverse,MaxPoints=100,StepSize=2)

Gaussian input prepared by ASE

0 1
C                -1.2009930000       -0.6106790000        1.2201530000
C                 0.2024120000        0.9075590000        0.5767490000
F                -0.3192720000       -0.3518280000       -0.2971380000
F                -0.1093500000        1.9209750000       -0.2102500000
S                 2.0175330000        0.6516790000        0.5076390000
O                 2.5957940000        1.8211740000        1.1215870000
O                 2.2848050000       -0.6806980000        0.9627910000
O                 2.3710660000        0.6753390000       -1.0710150000
F                -1.6675400000       -1.7404310000        0.7705800000
F                -0.5252550000       -0.8344260000        2.2898980000
F                -2.1500220000        0.2570670000        1.2951340000
H                 2.5512460000        1.5823000000       -1.3478390000


