%mem=28GB
%chk=2003846667223680600001_r12_insertion_R_8_5_2_IRC_R
%nprocshared=8
#P wb97xd/6-311++G(d,p) ! ASE formatted method and basis
Symm(None)
scf(xqc)
pop(None)
geom(AllCheck,NoKeepConstants)
guess(Read)
irc(RCFC,reverse,MaxPoints=100,StepSize=2)

Gaussian input prepared by ASE

0 1
C                -1.2868880000       -0.2996260000        0.7481030000
C                -0.4056120000        0.3677180000       -0.3804040000
F                -0.8570610000        0.0085320000       -1.5776680000
F                -0.4685210000        1.6998500000       -0.2750750000
S                 1.4081940000       -0.0964330000       -0.2839670000
O                 1.9342470000        0.4778130000        0.9228950000
O                 1.5272190000       -1.4733470000       -0.6414790000
O                 1.9282470000        0.7585730000       -1.5374840000
F                -0.5364920000       -1.0545440000        1.5437880000
F                -1.8710400000        0.6381420000        1.4796300000
F                -2.2212070000       -1.0604980000        0.1988350000
H                 2.1851110000        1.6450890000       -1.2516950000


