%mem=28GB
%chk=2003846667223680600001_r12_insertion_R_5_2_3_IRC_F_prod
%nprocshared=8
#P wb97xd/6-311++G(d,p) ! ASE formatted method and basis
Symm(None)
scf(xqc)
pop(None)
freq
opt(CalcFC)

Gaussian input prepared by ASE

0 1
C                -1.1408720000        0.1948030000        0.9195310000
C                -0.3925220000       -0.3586940000       -0.3529480000
F                -0.3166300000       -1.6996580000       -0.2916320000
F                -1.0712150000        0.0641590000       -1.4197470000
S                 1.3665980000        0.0112630000       -0.5769670000
O                 2.0898480000       -0.3817730000        0.5992860000
O                 1.7393470000       -0.4545670000       -1.8765870000
O                 1.0608020000        1.5964740000       -0.5719310000
F                -2.1739500000       -0.6251010000        1.0750750000
F                -0.3561240000        0.1621150000        1.9874990000
F                -1.6180120000        1.4331210000        0.8176140000
H                 1.6536510000        2.0729380000        0.0220290000


