%mem=28GB
%chk=2003846667223680600001_r12_insertion_R_12_8_5
%nprocshared=8
#P wb97xd/6-311++G(d,p) ! ASE formatted method and basis
Symm(None)
scf(xqc)
pop(None)
opt(NoFreeze,TS,CalcAll,NoEigentest,MaxCycle=999)

Gaussian input prepared by ASE

0 1
C                -0.8613690000       -0.0244750000        1.3035400000
C                -0.2085080000        0.2326980000       -0.0712330000
F                -0.5209210000       -0.7255040000       -0.9351010000
F                -0.6985410000        1.3424140000       -0.6172510000
S                 1.7305360000        0.3620320000       -0.0233190000
O                 2.2898900000        0.8134660000        1.3071110000
O                 2.1035600000       -1.0880590000       -0.2547490000
O                 2.1546440000        1.1673500000       -0.6231810000
F                -0.3809760000       -1.0724120000        1.9392880000
F                -0.7159540000        1.0142310000        2.1404560000
F                -2.1787230000       -0.2211330000        1.2292350000
H                 3.3367790000        1.7974180000        0.4235020000

1 2 F
1 9 F
1 10 F
1 11 F
2 3 F
2 4 F
2 5 F
5 6 F
5 7 F
5 8 F
8 12 F


