%mem=28GB
%chk=2003846667223680600001_r12_insertion_R_12_8_5_IRC_R_prod
%nprocshared=8
#P wb97xd/6-311++G(d,p) ! ASE formatted method and basis
Symm(None)
scf(xqc)
pop(None)
freq
opt(CalcFC)

Gaussian input prepared by ASE

0 1
C                -1.2451780000       -0.3666580000        0.7628460000
C                -0.4667010000        0.1574550000       -0.4760790000
F                -0.7776700000       -0.5861940000       -1.5385660000
F                -0.7993210000        1.4245010000       -0.7089040000
S                 1.4129820000        0.0834930000       -0.3509060000
O                 1.8051970000        1.3116260000        0.5975510000
O                 1.7375880000       -1.2095370000        0.1721990000
O                 1.9140830000        0.5788220000       -1.6082800000
F                -1.1225830000       -1.6780570000        0.8754360000
F                -0.7767930000        0.2177590000        1.8613910000
F                -2.5321200000       -0.0627050000        0.6264710000
H                 2.2187400000        1.9428290000       -0.0086710000


