%mem=28GB
%chk=2003846667223680600001_r12_insertion_R_3_2_1_IRC_F_prod
%nprocshared=8
#P wb97xd/6-311++G(d,p) ! ASE formatted method and basis
Symm(None)
scf(xqc)
pop(None)
freq
opt(CalcFC)

Gaussian input prepared by ASE

0 1
C                -1.4735600000       -0.5893450000        0.6655980000
C                -0.3790130000        0.2612900000       -0.3120600000
F                -0.5042960000       -0.4819250000       -1.3978250000
F                -0.6714710000        1.5405860000       -0.6406280000
S                 1.5750800000        0.3840390000       -0.0857910000
O                 2.0725860000        1.5989630000        0.5073950000
O                 1.9402320000       -0.9221380000        0.3609070000
O                 1.9185960000        0.4738740000       -1.6579370000
F                -1.8755370000       -1.7259080000        0.0865420000
F                -0.9555740000       -0.9496250000        1.8267860000
F                -2.5774650000        0.1350280000        0.8120240000
H                 2.0755770000        1.3945570000       -1.9044780000


