%mem=28GB
%chk=2003846667223680600001_r12_insertion_R_8_5_6
%nprocshared=8
#P wb97xd/6-311++G(d,p) ! ASE formatted method and basis
Symm(None)
scf(xqc)
pop(None)
opt(NoFreeze,TS,CalcAll,NoEigentest,MaxCycle=999)

Gaussian input prepared by ASE

0 1
C                -0.8353430000       -0.0940860000        1.3605270000
C                -0.0708560000        0.3002880000        0.0482510000
F                -0.7035470000       -0.2771510000       -1.0146950000
F                -0.2235250000        1.6118270000       -0.1877820000
S                 1.6819930000       -0.1223860000        0.0887570000
O                 2.4262940000        0.9602570000        1.3191610000
O                 1.9712730000       -1.2999210000       -0.4373300000
O                 2.5308820000        1.1571990000       -0.5677080000
F                -0.2623410000       -1.1070290000        1.9959790000
F                -0.8973960000        0.9091830000        2.2341710000
F                -2.0835850000       -0.4653720000        1.1256710000
H                 2.5165750000        2.0252230000       -0.1467130000

1 2 F
1 9 F
1 10 F
1 11 F
2 3 F
2 4 F
2 5 F
5 6 F
5 7 F
5 8 F
8 12 F


