%mem=28GB
%chk=2004167628425982700001_well
%nprocshared=8
#P wb97xd/6-311++G(d,p) ! ASE formatted method and basis
Symm(None)
scf(xqc)
pop(None)
freq
opt(CalcFC, Tight)

Gaussian input prepared by ASE

0 1
C                -1.1532180000        0.1750480000        0.8980060000
C                -0.6366120000        0.0362300000       -0.5589460000
F                -1.0662410000       -1.1360180000       -1.0564130000
F                -1.1495840000        1.0320380000       -1.3010140000
S                 1.2476080000        0.0343700000       -0.9353290000
O                 1.6254140000       -1.3064760000       -0.2070370000
O                 2.9428190000       -0.6571820000       -0.5271250000
O                 1.4501850000        1.2776390000        0.0797780000
F                -0.4958570000       -0.6570140000        1.6994190000
F                -1.0074030000        1.4154300000        1.3405890000
F                -2.4493420000       -0.1348980000        0.9363690000
H                 2.4011410000        1.4015500000        0.2007590000


