%mem=28GB
%nprocshared=8
#P M062X/Def2TZVPP ! ASE formatted method and basis
Symm(None)
scf(xqc)
pop(None)
freq
opt(CalcFC)

Gaussian input prepared by ASE

0 2
C                 1.9215356413       -0.4830102684        1.6570447971
F                 3.2129234600       -0.4487410138        1.8678395424
F                 1.3872218830       -1.6062759109        2.0615424259
S                 1.4193833347        0.0000000000        0.0000000000
O                 2.1960412231       -0.7053877948       -0.9498782960
O                 0.0000000000        0.0000000000        0.0000000000
O                 1.9415886004        1.4839165645        0.0000000000
H                 2.1826070872        1.7487501487       -0.8988856295


