%mem=28GB
%nprocshared=8
#P M062X/Def2TZVPP ! ASE formatted method and basis
Symm(None)
scf(xqc)
pop(None)
freq
opt(CalcFC)

Gaussian input prepared by ASE

0 1
C                 0.0000000000        0.0000000000        0.0000000000
F                -0.4552455747        0.7563399723       -0.9942944478
F                -0.4597452892        0.4779808671        1.1479517552
F                -0.4375060005       -1.2364161328       -0.1631107534
S                 1.8726722241        0.0000000000        0.0000000000
O                 2.1967962035       -0.5128368029       -1.3174410939
O                 1.9850584177        1.6033230787        0.0000000000
H                 2.9141487711        1.8758534915        0.0745196913


