%mem=28GB
%nprocshared=8
#P M062X/Def2TZVPP ! ASE formatted method and basis
Symm(None)
scf(xqc)
pop(None)
freq
opt(CalcFC)

Gaussian input prepared by ASE

0 2
C                -0.0836930000       -0.0601610000        0.0578420000
F                -0.5940100000        0.5800800000       -0.9764000000
F                -0.5550620000        0.4568640000        1.1761070000
F                -0.3988900000       -1.3395790000       -0.0096330000
S                 1.7495730000        0.0965580000        0.0331640000
O                 2.2315830000       -0.4805280000        1.2397550000
O                 2.1849110000       -0.3341930000       -1.2498250000
O                 1.9761730000        1.5929180000        0.1175790000


