%mem=28GB
%nprocshared=8
#P M062X/Def2TZVPP ! ASE formatted method and basis
Symm(None)
scf(xqc)
pop(None)
opt(NoFreeze,TS,CalcAll,NoEigentest,MaxCycle=999)

Gaussian input prepared by ASE

0 1
C                 0.7477157833       -1.6680015185        0.0819985550
F                 0.0000000000        0.0000000000        0.0000000000
F                 0.2635843850       -2.1510970377        1.1559055486
F                 0.2544522386       -2.2581727084       -0.9335247498
S                 1.8200188280        0.0000000000        0.0000000000
O                 2.3678149643       -0.2991834345        1.2746456223
O                 2.2708840845       -0.3661687587       -1.3033766794
O                 1.9462463632        1.5863802295        0.0000000000
H                 1.3042271687        1.9531687637        0.6216965355


