%mem=28GB
%nprocshared=8
#P M062X/Def2TZVPP ! ASE formatted method and basis
Symm(None)
scf(xqc)
pop(None)
freq
opt(CalcFC)

Gaussian input prepared by ASE

0 1
C                 0.0000000000        0.0000000000        0.0000000000
F                -0.4356737600        0.4436043210       -1.1760081871
F                -0.5465845821        0.7209252295        0.9633146712
F                -0.3866230263       -1.2674500829        0.1410713295
S                 1.8927753061        0.0000000000        0.0000000000
O                 1.9902023329       -0.5519248359        1.4539661320
O                 3.3590461679       -0.1441151922        1.0106892030
O                 1.9586452511        1.5949506420        0.0000000000
H                 2.8747301337        1.8594706447        0.1590762115


