%chk=2003846667223680600001_r13_insertion_ROR_3_2_5_6_TS.chk
%mem=8GB
%nprocshared=4
# wb97xd/6-311++G(d,p) NoSymm pop=full density=current

2003846667223680600001 Transition State - IRC Forward Point 0

0 1
C       0.249086     -1.323106     -0.843946
C      -0.004040     -0.412183      0.398619
F      -1.858864      0.113082     -0.320580
F       0.259496     -1.075046      1.478124
S       0.099771      1.400288      0.702831
O      -1.163433      1.795274      1.219737
O       1.298448      1.659420      1.435183
O       0.342212      1.811529     -0.806508
F       0.148306     -0.631967     -1.953616
F       1.436556     -1.938794     -0.849421
F      -0.683937     -2.250783     -0.743538
H      -0.490683      1.684722     -1.294131

