%mem=28GB
%nprocshared=8
#P M062X/Def2TZVPP ! ASE formatted method and basis
Symm(None)
scf(xqc)
pop(None)
freq
opt(CalcFC, Tight)

Gaussian input prepared by ASE

0 1
C                 0.0000000000        0.0000000000        0.0000000000
F                -0.4369036240        0.6640300684       -1.0616744077
F                -0.4577070050        0.5787535308        1.0929350632
S                 1.8400623092        0.0000000000        0.0000000000
O                 2.2567872122       -0.5038274328        1.2507147193
O                 2.2489490770       -0.5418465718       -1.2459855705
O                 2.0934734156        1.5520206100        0.0000000000
F                -0.4266299777       -1.2466709441       -0.0556138891
H                 2.9061140488        1.7563269286        0.4848446225


