%mem=28GB
%nprocshared=8
#P M062X/Def2TZVPP ! ASE formatted method and basis
Symm(None)
scf(xqc)
pop(None)
opt(CalcAll, Tight,Cartesian)

Gaussian input prepared by ASE

0 1
C                -0.6400750000        0.4787590000       -1.1267940000
S                 1.6594100000        0.0564200000        0.0116090000
O                -0.0005700000        0.2364660000        0.0447490000
O                 1.9130280000       -0.6200790000        1.2209960000
O                 1.9202730000        1.6257270000        0.2624860000
F                -1.9129540000        0.6897250000       -0.8674730000
F                -0.1470390000        1.5431180000       -1.7585260000
F                -0.5391830000       -0.5549170000       -1.9611150000
H                 2.7259810000        1.8948600000       -0.1968590000


