%mem=28GB
%nprocshared=8
#P M062X/Def2TZVPP ! ASE formatted method and basis
Symm(None)
scf(xqc)
pop(None)
freq
opt(CalcFC, Tight)

Gaussian input prepared by ASE

0 1
C                 0.0396290000       -1.0717220000       -0.8282740000
C                 0.3395310000       -0.1907500000        0.3851400000
F                 0.6506520000       -0.9292130000        1.4329130000
S                 0.7748740000        1.4841130000        0.3505210000
O                 1.4151720000        1.9709980000        1.5142520000
O                 0.8232620000        2.1618280000       -0.8894950000
O                -0.6544570000        0.8214750000        0.6542080000
F                -0.2855140000       -0.3408190000       -1.8762140000
F                 1.1082550000       -1.8019540000       -1.1137930000
F                -0.9687770000       -1.8809320000       -0.5330040000


