%mem=28GB
%nprocshared=8
#P M062X/Def2TZVPP ! ASE formatted method and basis
Symm(None)
scf(xqc)
pop(None)
freq
opt(CalcFC, Tight)

Gaussian input prepared by ASE

0 2
C                -0.6126900000       -1.3280790000        0.1823170000
C                 0.0508190000        0.0651040000        0.0739170000
F                -0.2569110000        0.6049360000       -1.1043240000
F                -0.4030720000        0.8393650000        1.0545380000
S                 1.8884530000        0.0130990000        0.1906380000
O                 2.2123730000       -0.1549180000        1.6110290000
O                 2.3449580000       -0.9635240000       -0.7236930000
O                 2.3081220000        1.4047830000       -0.0081320000
F                -0.3570250000       -2.0498240000       -0.8921360000
F                -0.1517270000       -1.9568340000        1.2556600000
F                -1.9212440000       -1.1720420000        0.2991790000


