%mem=28GB
%nprocshared=8
#P M062X/Def2TZVPP ! ASE formatted method and basis
Symm(None)
scf(xqc)
pop(None)
freq
opt(CalcFC, Tight)

Gaussian input prepared by ASE

0 1
C                -0.6488503452        0.9765953941        1.0078746375
C                 0.0000000000        0.0000000000        0.0000000000
F                -0.4054256521       -1.2434058300        0.2831061946
F                -0.3985690522        0.3256368991       -1.2265556712
S                 1.8446957734        0.0000000000        0.0000000000
O                 2.2277904929       -0.5448985308        1.2524270514
O                 2.2762415075       -0.5109044167       -1.2438185379
O                 2.1276907601        1.5448034864        0.0000000000
F                -0.1547919447        0.7773383960        2.2210684875
F                -0.4375121149        2.2267676810        0.6445591101
F                -1.9557064185        0.7511000086        1.0347908366
H                 2.1666507928        1.8788657539        0.9079692591


