%mem=28GB
%nprocshared=8
#P M062X/Def2TZVPP ! ASE formatted method and basis
Symm(None)
scf(xqc)
pop(None)
opt(NoFreeze,TS,CalcAll,NoEigentest,MaxCycle=999)

Gaussian input prepared by ASE

0 1
C                -0.4600690176       -2.2132759167       -1.1199277199
C                 0.4853706561       -1.7377566572       -0.0025363137
F                 0.0000000000        0.0000000000        0.0000000000
F                 0.0276484312       -2.1604468952        1.1244540831
S                 1.7590147427        0.0000000000        0.0000000000
O                 2.2035797001       -0.3763492989        1.2950563318
O                 2.2732951866       -0.3174477577       -1.2742962388
O                 1.8216838830        1.5810943226        0.0000000000
F                -0.2340751159       -1.5626385697       -2.2439112042
F                -0.2030028905       -3.5072798945       -1.3013325429
F                -1.7400077439       -2.0768854529       -0.7924807562
H                 1.1111397047        1.9301055798       -0.5546605527


