%mem=28GB
%nprocshared=8
#P M062X/Def2TZVPP ! ASE formatted method and basis
Symm(None)
scf(xqc)
pop(None)
freq
opt(CalcFC, Tight)

Gaussian input prepared by ASE

0 1
C                -0.6488503452        0.3845473428       -1.3496937392
C                 0.0000000000        0.0000000000        0.0000000000
F                -0.4054256521        0.8668800715        0.9352679387
F                -0.3985690522       -1.2250468200        0.3312680085
S                 1.8446957734        0.0000000000        0.0000000000
O                 2.2277904929       -0.5448985308        1.2524270514
O                 2.2762415075       -0.5109044167       -1.2438185379
O                 2.1276907601        1.5448034864        0.0000000000
F                -0.1547919447        1.5348325357       -1.7837290420
F                -0.4375121149       -0.5551792769       -2.2507169351
F                -1.9557064185        0.5206051478       -1.1678671065
H                 1.4254704603        2.0146437478       -0.4729275182


