%mem=28GB
%nprocshared=8
#P am1 
Symm(None)
scf(xqc)
pop(None)
force

Gaussian input prepared by ASE

0 1
C                -0.6757836872       -1.1919952037        0.1276776294
C                -0.0264696525        0.1809603359        0.4689144553
F                -0.6383025631        1.1652040876       -0.1870340683
F                -0.2021450361        0.4854264013        1.7351696381
S                 1.6819294310       -0.2495381123       -0.1024823700
O                 2.8096334845        0.0159516074        0.7272196500
O                 1.1950805163       -1.1482221368       -1.1431127595
O                 1.7875938619        1.1127397336       -0.9782000276
F                -1.1334520759       -1.9613235141        0.9987971152
F                 1.2448975068       -1.7558583022        1.0069675971
F                -1.0105575072       -1.5766640111       -1.0235068676
H                 2.4155127216        1.8029191144       -0.7362029922


