%mem=28GB
%nprocshared=8
#P M062X/Def2TZVPP ! ASE formatted method and basis
Symm(None)
scf(xqc)
pop(None)
opt(NoFreeze,TS,CalcAll,NoEigentest,MaxCycle=999)

Gaussian input prepared by ASE

0 1
C                 0.1139451157        0.4662470692        1.4808323568
C                 0.0000000000        0.0000000000        0.0000000000
F                -0.8922431140       -0.9206594864       -0.2888594607
F                -0.5458336879        1.0123945718       -0.6711248152
S                 1.8523257271        0.0000000000        0.0000000000
O                 2.2341080241       -0.3192474608        1.3710619511
O                 2.4282095789       -0.3458869268       -1.2567864707
O                 1.9231228026        1.6214613017        0.0000000000
F                 0.7808707099       -1.4493208243        0.6622577519
F                 0.4596125810        1.6106979611        1.8754736990
F                -0.2710300360       -0.2210190125        2.4500484130
H                 1.2084660628        2.1507668990        0.3718570624


