%mem=28GB
%nprocshared=8
#P M062X/Def2TZVPP ! ASE formatted method and basis
Symm(None)
scf(xqc)
pop(None)
opt(NoFreeze,TS,CalcAll,NoEigentest,MaxCycle=999)

Gaussian input prepared by ASE

0 1
C                -0.1069223348        0.5210742829        0.1584602077
C                 1.8567390510       -0.2046731249        0.2128935791
F                 2.0353340501       -0.8406489448        1.3702156279
F                 2.0958812414       -1.1013486110       -0.7390871242
S                 2.5735603827        1.5048032801       -0.0104688929
O                 2.4226993585        2.4515363881        1.0339446696
O                 3.1920506696        1.9125250195       -1.2210748983
O                 0.8650719744        1.6381851587       -0.5927910563
F                -0.0686551449        0.4570305054        1.4721237544
F                -1.2211371481        1.3255970857       -0.0791011826
F                -0.3736041422       -0.5688270266       -0.5412976920
H                 0.4251690422        2.4968839871       -0.7171779923


