%mem=28GB
%nprocshared=8
#P am1 
Symm(None)
scf(xqc)
pop(None)
force

Gaussian input prepared by ASE

0 1
C                 1.8927158918       -0.9979506327       -1.1799408061
C                 2.1541780033       -0.0406882764       -0.0415589827
F                -0.3217749828        0.5276771826        0.2708666485
F                 2.5387913755       -0.6109398737        1.0825567647
S                 1.9146410396        1.6180994195       -0.0570976500
O                 0.4974111066        2.0433765633        0.1188821242
O                 2.7928704056        2.3951934306        0.7304372791
O                 2.1110285960        2.0542579511       -1.5339050136
F                 1.2888466728       -0.4435576193       -2.2186738527
F                 3.0209168259       -1.5270011961       -1.6761004958
F                 1.1429318917       -2.0381597057       -0.8493518306
H                 2.9775251740        2.2889197569       -1.9001331850


