%mem=28GB
%nprocshared=8
#P M062X/Def2TZVPP ! ASE formatted method and basis
Symm(None)
scf(xqc)
pop(None)
opt(NoFreeze,TS,CalcAll,NoEigentest,MaxCycle=999)

Gaussian input prepared by ASE

0 1
C                -0.1014919769        0.4727343100       -0.0084524467
C                 1.8530999273       -0.1496048712        0.4133327607
F                 2.0280779092       -0.4394014830        1.7021913143
F                 2.0876243287       -1.2769965324       -0.2510989669
S                 2.5772564077        1.4530482228       -0.2136709448
O                 3.1344365508        2.4222315978        0.6581640063
O                 2.4942299997        1.7455930376       -1.5999819827
O                 0.8414368649        1.8323239080        0.1311521087
F                -0.4203970946       -0.1154807083        1.1244996786
F                -1.2148354844        1.2681934194       -0.2784117876
F                 0.0098649956       -0.2490862130       -1.1108316597
H                 0.4068845719        2.6285833124       -0.2202530803


