%mem=28GB
%nprocshared=8
#P M062X/Def2TZVPP ! ASE formatted method and basis
Symm(None)
scf(xqc)
pop(None)
freq
opt(CalcFC, Tight)

Gaussian input prepared by ASE

0 1
C                -0.6488503452       -1.3611427369        0.3418191018
C                 0.0000000000        0.0000000000        0.0000000000
F                -0.4054256521        0.3765257585       -1.2183741333
F                -0.3985690522        0.8994099208        0.8952876626
S                 1.8446957734        0.0000000000        0.0000000000
O                 2.2277904929       -0.5448985308        1.2524270514
O                 2.2762415075       -0.5109044167       -1.2438185379
O                 2.1276907601        1.5448034864        0.0000000000
F                -0.1547919447       -2.3121709317       -0.4373394455
F                -0.4375121149       -1.6715884040        1.6061578250
F                -1.9557064185       -1.2717051564        0.1330762699
H                 2.1666507928        1.8788657539        0.9079692591


