%mem=28GB
%nprocshared=8
#P M062X/Def2TZVPP ! ASE formatted method and basis
Symm(None)
scf(xqc)
pop(None)
opt(NoFreeze,TS,CalcAll,NoEigentest,MaxCycle=999)

Gaussian input prepared by ASE

0 1
C                -0.2388477336       -1.3853481225       -0.0001049283
C                 0.0000000000        0.0000000000        0.0000000000
F                -0.3640172222        0.6397653446       -1.1014531557
F                -0.3376066884        0.6381286512        1.1019965230
S                 2.2596825609        0.0000000000        0.0000000000
O                 2.5865570293       -0.3256623848        1.3421379057
O                 2.8373841058       -0.3899789930       -1.2470981060
O                 2.6659361727        1.5882715404        0.0000000000
F                 1.8453408917       -1.7404469199       -0.1134685053
F                -0.3358003523       -2.0457509186        1.0749777490
F                -0.4247888490       -2.0410207635       -1.0677006221
H                 2.8978780994        1.8219048795       -0.9083345519


