%mem=28GB
%nprocshared=8
#P am1 
Symm(None)
scf(xqc)
pop(None)
force

Gaussian input prepared by ASE

0 1
C                -0.6642416278       -1.0125066817        0.5803539318
C                -0.0630322664        0.0565805536       -0.3782043998
F                -0.4445171923       -0.1358851656       -1.6210147838
F                -0.5413602211        1.2645806016       -0.0862729808
S                 1.7017804959       -0.3012299363        0.0559823876
O                 1.4557329447       -0.8951498916        1.3652597557
O                 2.7165864559       -0.3301583377       -0.9440797214
O                 1.9201261357        1.2416154287        0.5099673438
F                 0.9266277103       -1.9267873237       -0.6102258189
F                -0.7793996025       -0.8730014194        1.8262562345
F                -1.2760670977       -2.0313241199        0.1961652876
H                 2.4956952653        1.8228552921        0.0000097638


