%mem=28GB
%nprocshared=8
#P M062X/Def2TZVPP ! ASE formatted method and basis
Symm(None)
scf(xqc)
pop(None)
opt(NoFreeze,TS,CalcAll,NoEigentest,MaxCycle=999)

Gaussian input prepared by ASE

0 1
C                -0.2329971638       -1.2287591479       -0.9267801675
C                 0.0000000000        0.0000000000        0.0000000000
F                -0.5654901973        1.0834650769       -0.5288364612
F                -0.6291283290       -0.1552165797        1.1432711719
S                 1.8521475844        0.0000000000        0.0000000000
O                 2.8532653102       -0.1582594834        1.0016605714
O                 1.7768827446       -0.3164980634       -1.4218757432
O                 1.9079594156        1.6219532536        0.0000000000
F                -0.7554833567       -2.2902832378       -0.5263424803
F                 1.3351667691       -1.7836786684        0.4920344416
F                -0.1000914657       -1.2552851419       -2.1785396459
H                 2.4639827177        2.0778491179        0.6420196863


