%mem=28GB
%nprocshared=8
#P M062X/Def2TZVPP ! ASE formatted method and basis
Symm(None)
scf(xqc)
pop(None)
freq
opt(CalcFC, Tight)

Gaussian input prepared by ASE

0 1
C                 2.5470646920        0.0853869344       -2.6281407692
C                 2.5131824202       -0.5289795797       -1.2656629054
F                -0.3815441676       -1.3358763801        0.1427529101
F                 2.7355831714       -1.8585665358       -1.2870156520
S                 1.6575219509        0.0000000000        0.0000000000
O                 0.0000000000        0.0000000000        0.0000000000
O                 1.8698203619       -0.6722356068        1.2252825123
O                 1.7792697825        1.5481418056        0.0000000000
F                 2.4218418457        1.4184712949       -2.5762996125
F                 3.7136439730       -0.1939853297       -3.2076274689
F                 1.5929881528       -0.3746514346       -3.4398506388
H                 2.6630215462        1.8260089683       -0.2846113858


