%mem=28GB
%nprocshared=8
#P M062X/Def2TZVPP ! ASE formatted method and basis
Symm(None)
scf(xqc)
pop(None)
freq
opt(CalcFC, Tight)

Gaussian input prepared by ASE

0 1
C                -0.7876147763       -1.2753641884        0.3613077730
C                 0.0000000000        0.0000000000        0.0000000000
F                -0.3335903840        0.3565358821       -1.2514926807
F                -0.3715793164        0.9813820716        0.8375361462
S                 1.9025159146        0.0000000000        0.0000000000
O                 2.0696243234       -0.5448392059        1.4505519501
O                 3.4064802275       -0.1129463352        0.9423916141
O                 1.9321182117        1.5960154404        0.0000000000
F                -0.2844418440       -2.3211160309       -0.2816772451
F                -0.7513866230       -1.5067798465        1.6634752216
F                -2.0579893151       -1.1279342635       -0.0005897194
H                 2.8484718589        1.8838155743        0.1124256187


