%mem=28GB
%nprocshared=8
#P M062X/Def2TZVPP ! ASE formatted method and basis
Symm(None)
scf(xqc)
pop(None)
freq
opt(CalcFC, Tight)

Gaussian input prepared by ASE

0 1
C                -0.7876147763        0.3247803842       -1.2851516727
C                 0.0000000000        0.0000000000        0.0000000000
F                -0.3335903840        0.9055565131        0.9345154716
F                -0.3715793164       -1.2160186150        0.4311337317
S                 1.9025159146        0.0000000000        0.0000000000
O                 2.0696243234       -0.5448392059        1.4505519501
O                 3.4064802275       -0.1129463352        0.9423916141
O                 1.9321182117        1.5960154404        0.0000000000
F                -0.2844418440        1.4044976654       -1.8693068253
F                -0.7513866230       -0.6872218772       -2.1366472358
F                -2.0579893151        0.5644778438       -0.9765248663
H                 1.3850716451        1.9109581739        0.7326142041


