%mem=28GB
%chk=1502984803620600000001_Intra_Diels_alder_R_6_7
%nprocshared=8
#P M062X/Def2TZVPP ! ASE formatted method and basis
Symm(None)
scf(xqc)
pop(None)
opt(NoFreeze,TS,CalcAll,NoEigentest,MaxCycle=999)

Gaussian input prepared by ASE

0 1
C                -0.0052800000        0.0185420000        0.0335700000
F                -0.5113320000        0.9575780000       -0.7658420000
F                -0.5741680000        0.2353760000        1.2136050000
F                -0.5165040000       -1.1225910000       -0.4028110000
S                 1.7880840000        0.0623580000        0.0660620000
O                 2.4433100000       -0.8780230000       -0.6512550000
O                 2.5086760000       -0.4525240000        1.0969360000
O                 1.9604450000        1.5413680000       -0.2576840000
H                 1.3772840000        2.1507540000       -0.7357030000



