%mem=28GB
%chk=1502984803620600000001_intra_H_migration_suprafacial_6_9_IRC_R_prod
%nprocshared=8
#P M062X/Def2TZVPP ! ASE formatted method and basis
Symm(None)
scf(xqc)
pop(None)
freq
opt(CalcFC)

Gaussian input prepared by ASE

0 1
C                 0.1696450000       -0.6403280000       -1.0436560000
F                -0.3413190000        0.5366280000       -1.5027030000
F                -0.8155030000       -1.5238640000       -1.0531790000
F                 1.0711790000       -1.0346340000       -1.9226980000
S                -0.1601800000        0.7858630000        1.1404800000
O                 0.6822140000       -0.4470010000        0.2020020000
O                -1.2129310000        0.1516630000        1.8354030000
O                 0.8663730000        1.5119060000        1.7774110000
H                -0.6510640000        1.4999350000        0.1275870000


