%mem=28GB
%chk=1502984803620600000001_r12_insertion_R_2_1_5
%nprocshared=8
#P M062X/Def2TZVPP ! ASE formatted method and basis
Symm(None)
scf(xqc)
pop(None)
opt(NoFreeze,TS,CalcAll,NoEigentest,MaxCycle=999)

Gaussian input prepared by ASE

0 1
C                -0.2306770000       -0.5607740000        0.3355240000
F                 0.0624280000        0.9752750000       -0.2506040000
F                -0.8523260000       -0.3597510000        1.3329950000
F                -0.8750630000       -1.0679440000       -0.5327410000
S                 1.7935910000        0.2367090000        0.0093950000
O                 2.1561410000        0.1009230000        1.3333520000
O                 2.0435040000       -0.5710270000       -1.0677490000
O                 2.2737740000        1.6222250000       -0.3867730000
H                 2.0991430000        2.1372010000       -1.1765100000

1 2 F
1 3 F
1 4 F
1 5 F
5 6 F
5 7 F
5 8 F
8 9 F


