%mem=28GB
%chk=1502984803620600000001_r12_insertion_R_1_5_8_IRC_R_prod
%nprocshared=8
#P M062X/Def2TZVPP ! ASE formatted method and basis
Symm(None)
scf(xqc)
pop(None)
freq
opt(CalcFC)

Gaussian input prepared by ASE

0 1
C                -0.9280950000       -0.1712720000        0.0632090000
F                -1.5159270000        0.3094120000       -1.0151110000
F                -1.3943320000        0.4424480000        1.1334550000
F                -1.1641990000       -1.4670470000        0.1567330000
S                 0.8970010000        0.0465750000       -0.0535500000
O                 1.4681960000       -0.3505590000        1.1818700000
O                 1.3290340000       -0.5090670000       -1.2842300000
O                 0.8369280000        1.6185160000       -0.1510830000
H                 1.7248030000        1.9995460000       -0.2169340000


