%mem=28GB
%chk=1502984803620600000001_r12_insertion_R_6_5_7_IRC_F_prod
%nprocshared=8
#P M062X/Def2TZVPP ! ASE formatted method and basis
Symm(None)
scf(xqc)
pop(None)
freq
opt(CalcFC)

Gaussian input prepared by ASE

0 1
C                -1.0323620000       -0.1534290000        0.0737560000
F                -1.8143060000        0.4722100000       -0.7736940000
F                -1.1641720000        0.4281140000        1.2539430000
F                -1.3856540000       -1.4110810000        0.1921930000
S                 0.9612760000       -0.0232350000       -0.2165470000
O                 1.1447730000       -0.6652430000        1.0395540000
O                 2.0227860000       -0.2451610000       -1.1609670000
O                 0.7679630000        1.5541310000       -0.2675100000
H                 1.6046110000        1.9760060000       -0.5131940000


