%mem=28GB
%chk=1502984803620600000001_r13_insertion_ROR_2_1_5_6_IRC_F_prod
%nprocshared=8
#P M062X/Def2TZVPP ! ASE formatted method and basis
Symm(None)
scf(xqc)
pop(None)
freq
opt(CalcFC)

Gaussian input prepared by ASE

0 1
C                -0.3134240000       -0.9330490000        0.0365980000
F                -1.8641310000       -0.3256070000        0.4919500000
F                 0.3033700000       -1.7700690000        0.8463380000
F                -0.4165550000       -1.5556840000       -1.1048070000
S                 0.4221820000        0.7915730000        0.0533430000
O                -0.6225370000        1.6084230000        0.4974540000
O                 1.6878500000        0.7614740000        0.6945050000
O                 0.5799110000        1.0261180000       -1.4918390000
H                 1.5020830000        0.9320830000       -1.7699860000


