%mem=28GB
%chk=1502984803620600000001_r12_insertion_R_8_5_1_IRC_F_prod
%nprocshared=8
#P M062X/Def2TZVPP ! ASE formatted method and basis
Symm(None)
scf(xqc)
pop(None)
freq
opt(CalcFC)

Gaussian input prepared by ASE

0 1
C                -0.9279720000       -0.1733610000        0.0593440000
F                -1.5116090000        0.3017050000       -1.0237360000
F                -1.4010420000        0.4433130000        1.1248840000
F                -1.1613410000       -1.4693510000        0.1566410000
S                 0.8971420000        0.0486280000       -0.0490620000
O                 1.4627470000       -0.3426140000        1.1906710000
O                 1.3371640000       -0.5103330000       -1.2755340000
O                 0.8336410000        1.6200400000       -0.1527930000
H                 1.7196870000        2.0015130000       -0.2379170000


