%mem=28GB
%chk=1502984803620600000001_r12_insertion_R_1_5_8
%nprocshared=8
#P M062X/Def2TZVPP ! ASE formatted method and basis
Symm(None)
scf(xqc)
pop(None)
opt(NoFreeze,TS,CalcAll,NoEigentest,MaxCycle=999)

Gaussian input prepared by ASE

0 1
C                 0.1342070000        0.0070610000        0.0193630000
F                -0.4613110000        0.5390100000       -1.0722290000
F                -0.3615770000        0.6867800000        1.0675620000
F                -0.5276340000       -1.1708620000        0.1294630000
S                 1.7899430000       -0.2001820000       -0.0477740000
O                 2.4181060000       -0.4720920000        1.1547550000
O                 2.2986940000       -0.6388010000       -1.2713900000
O                 1.2711680000        1.5209710000       -0.1399870000
H                 1.9089150000        2.2409410000       -0.2428870000

1 2 F
1 3 F
1 4 F
1 5 F
5 6 F
5 7 F
5 8 F
8 9 F


