%mem=28GB
%chk=1502984803620600000001_r12_insertion_R_6_5_8
%nprocshared=8
#P M062X/Def2TZVPP ! ASE formatted method and basis
Symm(None)
scf(xqc)
pop(None)
opt(NoFreeze,TS,CalcAll,NoEigentest,MaxCycle=999)

Gaussian input prepared by ASE

0 1
C                -0.0726580000       -0.1269070000        0.0287370000
F                -0.6851100000        0.7437370000       -0.7832910000
F                -0.5011490000        0.1760280000        1.2468370000
F                -0.6600510000       -1.3098320000       -0.2463480000
S                 1.6905070000       -0.1651450000       -0.1509810000
O                 2.4239620000        0.1642840000        1.3127180000
O                 2.0555610000       -0.7752730000       -1.2310970000
O                 2.2188130000        1.5465210000        0.0253400000
H                 2.0006410000        2.2594190000       -0.6050450000

1 2 F
1 3 F
1 4 F
1 5 F
5 6 F
5 7 F
5 8 F
8 9 F


