%mem=28GB
%chk=1502984803620600000001_r13_insertion_ROR_2_1_5_6
%nprocshared=8
#P M062X/Def2TZVPP ! ASE formatted method and basis
Symm(None)
scf(xqc)
pop(None)
opt(NoFreeze,TS,CalcAll,NoEigentest,MaxCycle=999)

Gaussian input prepared by ASE

0 1
C                 1.6426240000        0.0250710000       -0.1405100000
F                -0.0461650000        0.4972300000        0.8212900000
F                 2.0087430000       -0.9426280000        0.7013700000
F                 1.0526270000       -0.6168700000       -1.1511730000
S                 2.1169570000        1.3951590000       -0.1597260000
O                 0.3846450000        2.3386230000        0.1703860000
O                 3.2489120000        1.6421840000        0.5271740000
O                 2.4840310000        1.7492990000       -1.5916620000
H                 3.3908090000        1.8830560000       -1.9079360000

1 2 F
1 3 F
1 4 F
1 5 F
5 6 F
5 7 F
5 8 F
8 9 F


