%mem=28GB
%chk=1502984803620600000001_r12_insertion_R_5_1_3
%nprocshared=8
#P M062X/Def2TZVPP ! ASE formatted method and basis
Symm(None)
scf(xqc)
pop(None)
opt(NoFreeze,TS,CalcAll,NoEigentest,MaxCycle=999)

Gaussian input prepared by ASE

0 1
C                -0.0184200000       -0.5870700000       -0.2072120000
F                -0.6749290000       -0.8018980000       -1.3068770000
F                 0.1159950000        1.4906230000        0.5035120000
F                -0.6956970000       -1.1274390000        0.7465390000
S                 1.4272630000        0.2355590000       -0.0580500000
O                 1.9708970000       -0.8260010000        0.7494020000
O                 1.6169190000        0.4549810000       -1.4809650000
O                 2.3633640000        1.3893600000        0.5132190000
H                 2.3651240000        2.2847230000        0.1373080000

1 2 F
1 3 F
1 4 F
1 5 F
5 6 F
5 7 F
5 8 F
8 9 F


