%mem=28GB
%chk=1502984803620600000001_well
%nprocshared=8
#P M062X/Def2TZVPP ! ASE formatted method and basis
Symm(None)
scf(xqc)
pop(None)
freq
opt(CalcFC)

Gaussian input prepared by ASE

0 1
C                -1.0290655991       -0.0593454155       -0.0381354933
F                -1.4917098493        0.5005214760       -1.2073931099
F                -1.2646667321        0.7999071450        1.0214346397
F                -1.7702740471       -1.1996743054        0.1946196222
S                 0.7098746253       -0.4016215821       -0.0738464442
O                 1.0604061921       -0.9066508448        1.3113982725
O                 1.0684548357       -1.4457003598       -1.0827146836
O                 1.5984154165        0.9978162564       -0.3225582384
H                 1.1185651580        1.7147476303        0.1971954351


