%mem=28GB
%chk=1502984803620600000001_r12_insertion_R_8_5_1
%nprocshared=8
#P M062X/Def2TZVPP ! ASE formatted method and basis
Symm(None)
scf(xqc)
pop(None)
opt(NoFreeze,TS,CalcAll,NoEigentest,MaxCycle=999)

Gaussian input prepared by ASE

0 1
C                 0.0589230000        0.0110950000        0.0213860000
F                -0.5035550000        0.5438710000       -1.0648840000
F                -0.4041830000        0.6923250000        1.0597910000
F                -0.5533650000       -1.1683080000        0.1303300000
S                 1.8492210000       -0.1593830000       -0.0545800000
O                 2.4685960000       -0.4323850000        1.1468380000
O                 2.3508090000       -0.6037300000       -1.2733900000
O                 1.3206970000        1.4225050000       -0.1393910000
H                 1.8833670000        2.2068410000       -0.2292240000

1 2 F
1 3 F
1 4 F
1 5 F
5 6 F
5 7 F
5 8 F
8 9 F


