%mem=28GB
%chk=1502984803620600000001_r13_insertion_ROR_2_1_5_6_IRC_R_prod
%nprocshared=8
#P M062X/Def2TZVPP ! ASE formatted method and basis
Symm(None)
scf(xqc)
pop(None)
opt(CalcAll,Cartesian,Cartesian)

Gaussian input prepared by ASE

0 1
C                 0.4468860000       -1.8870560000       -0.9232490000
F                -1.4733480000        0.6728380000       -0.7904770000
F                 1.1048420000       -2.7284880000       -1.6320450000
F                -0.7341160000       -2.3672830000       -0.8011420000
S                 0.0616500000        1.3267850000        1.0135780000
O                -1.0615860000        1.8553050000       -0.1499370000
O                 0.4957530000        2.5940770000        1.5148950000
O                 1.1866930000        0.8333180000        0.0150700000
H                 1.0104850000       -0.0949800000       -0.2626490000


