%mem=28GB
%chk=1502984803620600000001_r13_insertion_ROR_2_1_5_8
%nprocshared=8
#P M062X/Def2TZVPP ! ASE formatted method and basis
Symm(None)
scf(xqc)
pop(None)
opt(NoFreeze,TS,CalcAll,NoEigentest,MaxCycle=999)

Gaussian input prepared by ASE

0 1
C                 1.7016770000        0.0615930000       -0.0533530000
F                -0.1929130000        0.1617000000        0.5795040000
F                 2.0819050000       -0.8238470000        0.8693900000
F                 1.4282190000       -0.6807450000       -1.1326510000
S                 2.0047010000        1.4795790000       -0.0538720000
O                 2.7473240000        1.9314370000        1.0722570000
O                 2.2727680000        2.0292890000       -1.3483800000
O                 0.1393790000        2.1128230000        0.2919250000
H                 0.2972870000        3.0558640000        0.1527580000

1 2 F
1 3 F
1 4 F
1 5 F
5 6 F
5 7 F
5 8 F
8 9 F


