%mem=28GB
%chk=1502984803620600000001_r12_insertion_R_8_5_1_IRC_R_prod
%nprocshared=8
#P M062X/Def2TZVPP ! ASE formatted method and basis
Symm(None)
scf(xqc)
pop(None)
freq
opt(CalcFC)

Gaussian input prepared by ASE

0 1
C                -0.9279740000       -0.1733620000        0.0593050000
F                -1.5116640000        0.3017500000       -1.0237260000
F                -1.4009840000        0.4432720000        1.1248940000
F                -1.1613430000       -1.4693500000        0.1566180000
S                 0.8971330000        0.0486110000       -0.0492870000
O                 1.4631640000       -0.3419950000        1.1905810000
O                 1.3367500000       -0.5109560000       -1.2754960000
O                 0.8335880000        1.6199820000       -0.1535860000
H                 1.7208050000        2.0029730000       -0.2168730000


