%mem=28GB
%chk=1502984803620600000001_r12_insertion_R_1_5_6
%nprocshared=8
#P M062X/Def2TZVPP ! ASE formatted method and basis
Symm(None)
scf(xqc)
pop(None)
opt(NoFreeze,TS,CalcAll,NoEigentest,MaxCycle=999,Cartesian)

Gaussian input prepared by ASE

0 1
C                 0.0812050000        0.3844550000        0.1387730000
F                -0.4239110000        0.4683540000       -1.0889700000
F                -0.4932970000        1.3030570000        0.9022470000
F                -0.1763820000       -0.8146600000        0.6293160000
S                 1.9343980000        0.6500790000        0.0875030000
O                 1.8712390000       -2.9385790000        2.0721030000
O                 2.3878710000       -0.4216250000       -0.7796680000
O                 1.8319940000        2.0225460000       -0.7417200000
H                 1.4573970000        1.8592010000       -1.6227080000

1 2 F
1 3 F
1 4 F
1 5 F
5 6 F
5 7 F
5 8 F
8 9 F


