%mem=28GB
%chk=1502984803620600000001_r12_insertion_R_2_1_4
%nprocshared=8
#P M062X/Def2TZVPP ! ASE formatted method and basis
Symm(None)
scf(xqc)
pop(None)
opt(NoFreeze,TS,CalcAll,NoEigentest,MaxCycle=999,Cartesian)

Gaussian input prepared by ASE

0 1
C                 0.0646430000        0.3212060000        0.5098120000
F                -0.6903270000        0.6279080000       -0.3991420000
F                -0.4453590000       -0.3018410000        1.4905220000
F                -1.1484070000       -0.9319200000       -1.5115020000
S                 1.8644650000        0.2314100000        0.2894670000
O                 2.3587230000        0.2989120000        1.6053450000
O                 2.1250200000       -0.8165080000       -0.6164160000
O                 2.0704860000        1.6058290000       -0.4151030000
H                 2.2712690000        1.4778340000       -1.3561070000

1 2 F
1 3 F
1 4 F
1 5 F
5 6 F
5 7 F
5 8 F
8 9 F


