%mem=28GB
%chk=1503305764823040000001_well
%nprocshared=8
#P M062X/Def2TZVPP ! ASE formatted method and basis
Symm(None)
scf(xqc)
pop(None)
freq
opt(CalcFC)

Gaussian input prepared by ASE

0 1
C                -1.0397490000       -0.0936860000        0.1614810000
F                -1.8910830000        0.5023450000       -0.6689220000
F                -1.1291730000        0.4727880000        1.3521000000
F                -1.3857260000       -1.3760190000        0.2697870000
S                 0.6945660000       -0.0548850000       -0.5956480000
O                 1.3844760000       -0.7935350000        0.5903330000
O                 2.4465410000       -0.1897410000       -0.2722140000
O                 0.6945790000        1.5224290000       -0.3501140000
H                 1.5873940000        1.8539520000       -0.5158290000


