%mem=28GB
%nprocshared=8
#P M062X/Def2TZVPP ! ASE formatted method and basis
Symm(None)
scf(xqc)
pop(None)
freq
opt(CalcFC)

Gaussian input prepared by ASE

0 1
C                 1.3570416639        0.0000000000        0.0000000000
O                 0.0000000000        0.0000000000        0.0000000000
C                -0.5898871717        0.6230768679        1.0786813606
F                -0.2591356819        1.8986038275        1.1388584649
F                -1.8946916860        0.5237906741        0.9091466205
F                -0.2572481785        0.0396624270        2.2139913250
O                 1.7190836445        1.2401718768        0.0000000000
H                 0.9630356151        1.8590711804        0.0000011443


