%mem=28GB
%nprocshared=8
#P M062X/Def2TZVPP ! ASE formatted method and basis
Symm(None)
scf(xqc)
pop(None)
freq
opt(CalcFC)

Gaussian input prepared by ASE

0 1
C                 0.7108363263        1.9719982911        1.0076078932
O                 0.9682246094        0.0000000000        0.0000000000
C                -0.8013932533        1.6787678756        0.9244168525
F                -1.4388703918        2.8438939624        0.8627000656
F                -1.2101027942        0.9387618325       -0.1097189727
F                -1.1586462850        1.0461372500        2.0372984012
O                 1.2075446969        1.4212913555        0.0000000000
H                 0.0000000000        0.0000000000        0.0000000000


