%mem=28GB
%nprocshared=8
#P M062X/Def2TZVPP ! ASE formatted method and basis
Symm(None)
scf(xqc)
pop(None)
freq
opt(CalcFC)

Gaussian input prepared by ASE

0 1
C                 2.4311163705        1.6823338467       -0.0004222234
O                 0.9682246094        0.0000000000        0.0000000000
C                 2.5159028936        3.2226393785       -0.0040611150
F                 3.1691978349        3.5914692951       -1.1017291315
F                 1.3559439730        3.8845306337        0.0179526610
F                 3.2129659336        3.5978613802        1.0634912942
O                 1.2075446969        1.4212913555        0.0000000000
H                 0.0000000000        0.0000000000        0.0000000000


