%mem=28GB
%nprocshared=8
#P M062X/Def2TZVPP ! ASE formatted method and basis
Symm(None)
scf(xqc)
pop(None)
freq
opt(CalcFC)

Gaussian input prepared by ASE

0 1
C                 1.5439095742        0.0000000000        0.0000000000
O                 2.1988876460       -0.9911372822       -0.0003106151
C                 0.0000000000        0.0000000000        0.0000000000
F                -0.4607274841        0.6324393116        1.0761562844
F                -0.4602681232        0.6238290370       -1.0814521991
F                -0.4586285448       -1.2370574325        0.0047680893
O                 1.9948248171        1.2499616406        0.0000000000
H                 2.9616269034        1.2262411098       -0.0002498665


