%mem=28GB
%nprocshared=8
#P M062X/Def2TZVPP ! ASE formatted method and basis
Symm(None)
scf(xqc)
pop(None)
freq
opt(CalcFC)

Gaussian input prepared by ASE

0 1
C                 2.4311163705        1.6823338467       -0.0004222234
O                 0.9682246094        0.0000000000        0.0000000000
C                 2.9816253650        1.0417750850        1.2904563329
F                 3.5074600199        2.0110202363        2.0332662778
F                 2.1041693284        0.3806975824        2.0501515199
F                 3.9405017652        0.1875317622        0.9481392675
O                 1.2075446969        1.4212913555        0.0000000000
H                 0.0000000000        0.0000000000        0.0000000000


