%mem=28GB
%nprocshared=8
#P M062X/Def2TZVPP ! ASE formatted method and basis
Symm(None)
scf(xqc)
pop(None)
freq
opt(CalcFC)

Gaussian input prepared by ASE

0 1
C                 0.7108363263        1.9719982911        1.0076078932
O                 0.9682246094        0.0000000000        0.0000000000
C                 1.3989861642        1.3022186331        2.2149140423
F                 0.4550156244        0.7267213503        2.9534445830
F                 2.3185980244        0.3737540060        1.9385866991
F                 1.9907006231        2.2535651846        2.9298758012
O                 1.2075446969        1.4212913555        0.0000000000
H                 0.0000000000        0.0000000000        0.0000000000


