%mem=28GB
%nprocshared=8
#P M062X/Def2TZVPP ! ASE formatted method and basis
Symm(None)
scf(xqc)
pop(None)
freq
opt(CalcFC)

Gaussian input prepared by ASE

0 1
C                 2.4311163705        1.6823338467       -0.0004222234
O                 0.9682246094        0.0000000000        0.0000000000
C                 2.9820400693        1.0356606204       -1.2880712220
F                 3.9043462272        0.1459156636       -0.9339383023
F                 2.0962415607        0.4111948644       -2.0687714586
F                 3.5548935472        1.9901830244       -2.0140756654
O                 1.2075446969        1.4212913555        0.0000000000
H                 0.0000000000        0.0000000000        0.0000000000


