%mem=28GB
%nprocshared=8
#P M062X/Def2TZVPP ! ASE formatted method and basis
Symm(None)
scf(xqc)
pop(None)
freq
opt(CalcFC)

Gaussian input prepared by ASE

0 1
C                 0.9077560000       -0.2253760000        0.6109690000
O                 1.6809030000       -0.3952300000       -0.5756060000
C                -0.5601540000       -0.1235440000        0.1619130000
F                -1.2231900000        0.6799800000        0.9912040000
F                -0.7677580000        0.3194690000       -1.0806170000
F                -1.0800880000       -1.3488700000        0.2467740000
O                 1.5530350000        0.9910170000       -0.1947930000
H                 2.3619670000        1.1646800000        0.3176200000


