%mem=28GB
%nprocshared=8
#P M062X/Def2TZVPP ! ASE formatted method and basis
Symm(None)
scf(xqc)
pop(None)
freq
opt(CalcFC)

Gaussian input prepared by ASE

0 2
C                 1.4345951274        0.0000000000        0.0000000000
O                 2.0944187738       -1.0095233070        0.0002264793
C                 0.0000000000        0.0000000000        0.0000000000
F                -0.7321821367        1.0742949856       -0.0014647730
F                -0.6822900791       -1.1022385558       -0.0017629293
O                 1.9310213441        1.2511351410        0.0000000000
H                 2.8930861607        1.1699686848        0.0008962853


