%mem=28GB
%nprocshared=8
#P M062X/Def2TZVPP ! ASE formatted method and basis
Symm(None)
scf(xqc)
pop(None)
freq
opt(CalcFC)

Gaussian input prepared by ASE

0 1
C                 1.5434807447        0.0000000000        0.0000000000
C                 0.0000000000        0.0000000000        0.0000000000
F                -0.5875142983        1.1974167442        0.0012400081
F                -0.4138587503       -0.6543033268       -1.0844346744
F                -0.4142839565       -0.6566362907        1.0828481545
O                 1.9031552960        1.2357091896        0.0000000000
H                 2.8687548559        1.2866817079       -0.0001488534


