%mem=28GB
%chk=1141903082400600000001_r12_insertion_R_4_3_5_IRC_R_prod
%nprocshared=8
#P M062X/Def2TZVPP ! ASE formatted method and basis
Symm(None)
scf(xqc)
pop(None)
freq
opt(CalcFC)

Gaussian input prepared by ASE

0 1
C                 1.2565060000       -0.1850540000        0.1986090000
O                 1.9876960000       -1.1010100000        0.4075010000
C                -0.2356360000       -0.4117110000        0.1992140000
F                -1.0565970000        0.4605280000        0.4534990000
F                -2.0194100000        1.4503880000       -1.0680580000
F                -0.6652370000       -1.5850120000        0.0084720000
O                 1.5329680000        1.0849740000        0.0106720000
H                 2.4915190000        1.2197550000        0.0495860000


