%mem=28GB
%chk=1141903082400600000001_intra_H_migration_2_8_IRC_F_prod
%nprocshared=8
#P M062X/Def2TZVPP ! ASE formatted method and basis
Symm(None)
scf(xqc)
pop(None)
freq
opt(CalcFC)

Gaussian input prepared by ASE

0 1
C                -0.3261930000        0.3188920000       -0.8859760000
O                 0.1572310000        0.0051640000       -1.9251200000
C                 0.2064280000       -0.2195310000        0.4820010000
F                 0.8958130000       -1.3289440000        0.2723400000
F                 1.0187260000        0.6809100000        1.0336920000
F                -0.7672900000       -0.4849460000        1.3445030000
O                -1.3343400000        1.1758190000       -0.8112370000
H                -1.5190990000        1.4315910000       -1.7269100000


