%mem=28GB
%chk=1141942801461180600001_well
%nprocshared=8
#P M062X/Def2TZVPP ! ASE formatted method and basis
Symm(None)
scf(xqc)
pop(None)
freq
opt(CalcFC)

Gaussian input prepared by ASE

0 1
C                -0.5219540000        0.4610360000        0.7568740000
O                -2.6738700000        0.0025710000        1.1165180000
C                 0.6619950000        0.1034470000       -0.1651470000
F                 1.6304130000       -0.4010720000        0.5933240000
F                 0.4146290000       -0.7736040000       -1.1417180000
F                 1.0936960000        1.2252070000       -0.7323280000
O                -1.4812000000       -0.2255740000        0.3401130000
H                -3.2812980000       -0.5957410000        0.6577030000


