%mem=28GB
%chk=1141903082400600000001_r12_insertion_R_3_1_7_IRC_R_prod
%nprocshared=8
#P M062X/Def2TZVPP ! ASE formatted method and basis
Symm(None)
scf(xqc)
pop(None)
freq
opt(CalcFC)

Gaussian input prepared by ASE

0 1
C                 0.9884860000       -0.1327540000        0.0352770000
O                 1.5585350000       -1.1731690000        0.0968190000
C                -0.5491730000       -0.0053140000       -0.0158020000
F                -0.9863960000        0.7096440000        1.0176730000
F                -0.9223760000        0.6070000000       -1.1366880000
F                -1.1109150000       -1.1983560000        0.0243780000
O                 1.5414550000        1.0751310000       -0.0009530000
H                 2.5026590000        0.9724080000        0.0307730000


