%mem=28GB
%chk=1141903082400600000001_intra_H_migration_1_8_IRC_F_prod
%nprocshared=8
#P M062X/Def2TZVPP ! ASE formatted method and basis
Symm(None)
scf(xqc)
pop(None)
freq
opt(CalcFC)

Gaussian input prepared by ASE

0 1
C                 0.9665550000        0.2383730000        0.0378510000
O                 1.7826060000       -0.7101170000       -0.3981500000
C                -0.5581680000       -0.1061320000        0.0111000000
F                -1.1780110000        0.5981380000        0.9450790000
F                -1.0646800000        0.2328650000       -1.1737770000
F                -0.8085370000       -1.3925010000        0.2178140000
O                 1.3669750000        1.2982740000        0.3963140000
H                 2.6696530000       -0.3243190000       -0.3485320000


