%mem=28GB
%chk=1141903082400600000001_r13_insertion_ROR_4_3_1_2_IRC_R_prod
%nprocshared=8
#P M062X/Def2TZVPP ! ASE formatted method and basis
Symm(None)
scf(xqc)
pop(None)
freq
opt(CalcFC)

Gaussian input prepared by ASE

0 1
C                 0.5755280000        0.8855860000        0.9509020000
O                -0.6259420000       -0.0780750000       -1.5585260000
C                -0.4617010000       -0.9528460000       -0.7993940000
F                -0.3190280000        1.8203470000        1.2442310000
F                -1.3334740000       -1.3815720000        0.0726010000
F                 0.6034290000       -1.7039220000       -0.7182020000
O                 1.6850450000        1.4777750000        0.6871620000
H                 1.6160090000        2.4507650000        0.7505890000


