%mem=28GB
%chk=1141903082400600000001_r12_insertion_R_3_1_2_IRC_F_prod
%nprocshared=8
#P M062X/Def2TZVPP ! ASE formatted method and basis
Symm(None)
scf(xqc)
pop(None)
freq
opt(CalcFC)

Gaussian input prepared by ASE

0 1
C                 1.2556530000        0.4951580000        0.8502290000
O                 0.7064530000        0.1034560000       -0.3322270000
C                -0.6148440000       -0.2744070000       -0.2134680000
F                -1.3187760000        0.7065920000        0.3215420000
F                -1.0721100000       -0.5186530000       -1.4260220000
F                -0.7520720000       -1.3584910000        0.5235020000
O                 2.3834750000        1.0535470000        0.5685700000
H                 2.5710450000        1.0790670000       -0.3899910000


