%mem=28GB
%chk=1141903082400600000001_r12_insertion_R_2_1_3_IRC_R_prod
%nprocshared=8
#P M062X/Def2TZVPP ! ASE formatted method and basis
Symm(None)
scf(xqc)
pop(None)
freq
opt(CalcFC)

Gaussian input prepared by ASE

0 1
C                 0.9919750000        0.2035620000       -0.0258670000
O                 1.4940270000       -0.4284820000       -0.8973090000
C                -0.5717410000       -0.0587860000        0.0438780000
F                -1.3704570000        0.8524520000        0.5783440000
F                -0.9709930000       -0.2362740000       -1.2081090000
F                -0.7497960000       -1.2220260000        0.6713930000
O                 1.6977520000        0.9830070000        0.8026770000
H                 2.6126790000        0.8962090000        0.5040260000


