%mem=28GB
%chk=1141903082400600000001_r12_insertion_R_8_7_1_IRC_F_prod
%nprocshared=8
#P M062X/Def2TZVPP ! ASE formatted method and basis
Symm(None)
scf(xqc)
pop(None)
freq
opt(CalcFC)

Gaussian input prepared by ASE

0 1
C                 0.9688100000        0.2266390000        0.0456020000
O                 1.6802180000       -0.1482150000       -1.0071990000
C                -0.5595060000       -0.0987460000       -0.0017780000
F                -1.2276380000        0.8720560000        0.6037870000
F                -1.0355740000       -0.2332480000       -1.2320560000
F                -0.7817550000       -1.2339440000        0.6589760000
O                 1.4660490000        0.7530410000        0.9880270000
H                 2.5933060000        0.0970070000       -0.7964050000


