%mem=28GB
%chk=981622481180600000001_well
%nprocshared=8
#P M062X/Def2TZVPP ! ASE formatted method and basis
Symm(None)
scf(xqc)
pop(None)
freq
opt(CalcFC)

Gaussian input prepared by ASE

0 1
C                 1.5439120000       -0.0000040000        0.0004870000
C                -0.0000340000       -0.0000270000       -0.0000470000
F                -0.4608700000        0.6308350000        1.0770050000
F                -0.4600690000        0.6255170000       -1.0805470000
F                -0.4586140000       -1.2371300000        0.0028310000
O                 1.9948200000        1.2499790000       -0.0019250000
H                 2.9616210000        1.2262450000       -0.0015980000


