%chk=2003846667223680600001_r13_insertion_RSR_9_1_2_5_TS.chk
%mem=8GB
%nprocshared=4
# wb97xd/6-311++G(d,p) NoSymm pop=full density=current

2003846667223680600001 Transition State - IRC Forward Point 0

0 1
C       0.164142     -1.411466     -0.306468
C       0.861199     -0.035817     -0.130323
F       1.720979     -0.015347      0.882700
F       1.518740      0.337859     -1.212971
S      -0.591630      1.245789      0.346053
O      -0.627395      0.996557      1.769023
O      -0.151510      2.387062     -0.398567
O      -2.154629      1.163224     -0.094713
F      -1.148355     -1.139199     -0.395917
F       0.509644     -2.030441     -1.418791
F       0.356402     -2.194888      0.736545
H      -2.631863      0.595201      0.525172

