%mem=28GB
%nprocshared=8
#P wb97xd/6-311++G(d,p) ! ASE formatted method and basis
Symm(None)
scf(xqc)
pop(None)
freq
opt(CalcFC, Tight)

Gaussian input prepared by ASE

0 2
C                 2.0550440428       -0.4732914320        1.6500083785
F                 2.0738752887       -1.7696002225        1.8431479835
F                 1.4889334697        0.1609423074        2.6474115295
S                 1.4313946355        0.0000000000        0.0000000000
O                 2.2260837378       -0.7250198170       -0.9515301621
O                 0.0000000000        0.0000000000        0.0000000000
O                 1.8830616706        1.5386658582        0.0000000000
H                 1.2820731667        2.0600376232       -0.5473584580


