%mem=28GB
%nprocshared=8
#P wb97xd/6-311++G(d,p) ! ASE formatted method and basis
Symm(None)
scf(xqc)
pop(None)
freq
opt(CalcFC, Tight)

Gaussian input prepared by ASE

0 2
C                -0.5658056518        0.9747118025       -1.0090618459
C                 0.0000000000        0.0000000000        0.0000000000
F                -0.3870107289        0.3670578625        1.2238171905
F                -0.4213161129       -1.2566243909       -0.2236562114
S                 1.8732651836        0.0000000000        0.0000000000
O                 2.2877009894       -0.5614834730        1.2578594499
O                 2.2874195395       -0.5009237374       -1.2705900556
O                 2.1737625201        1.5742695633        0.0000000000
F                -0.1146604477        0.8212403187       -2.2439054751
F                -1.8716567743        1.0976823475       -0.9808628899
H                 1.4608500950        2.0523041506       -0.4436296044


