%mem=28GB
%nprocshared=8
#P wb97xd/6-311++G(d,p) ! ASE formatted method and basis
Symm(None)
scf(xqc)
pop(None)
freq
opt(CalcFC, Tight)

Gaussian input prepared by ASE

0 2
C                 3.3934330437       -0.9082635970        1.9104070930
C                 1.9574004635       -0.5359142638        1.6110846939
F                 1.2507088406       -0.0919836225        2.6192850427
S                 1.4268282271        0.0000000000        0.0000000000
O                 2.2388330292       -0.7116607348       -0.9474989204
O                 0.0000000000        0.0000000000        0.0000000000
O                 1.8714303044        1.5477021367        0.0000000000
F                 3.7279126160       -2.0547392366        1.3312711245
F                 4.2366205318        0.0403418332        1.4536082596
F                 3.5697633845       -1.0174879640        3.2214284152
H                 1.8257610334        1.9053305927        0.8968195890


