%mem=28GB
%nprocshared=8
#P wb97xd/6-311++G(d,p) ! ASE formatted method and basis
Symm(None)
scf(xqc)
pop(None)
freq
opt(CalcFC, Tight)

Gaussian input prepared by ASE

0 1
C                -0.6566755217       -1.4058543016        0.0381033208
C                 0.0000000000        0.0000000000        0.0000000000
F                -0.3228747558        0.5874699253       -1.1634144246
F                -0.4489871085        0.7430902483        1.0042538436
S                 1.9044404701        0.0000000000        0.0000000000
O                 2.2611505430       -0.5059700231       -1.3228736569
O                 1.9065825857        1.6607334070        0.0000000000
F                 0.0342982683       -2.2334290470       -0.7554264668
F                -0.6786914452       -1.9025540972        1.2628845047
F                -1.9054493084       -1.3363165664       -0.4143274208
H                 1.7068019509        1.9759681482       -0.8876372575


