%mem=28GB
%nprocshared=8
#P wb97xd/6-311++G(d,p) ! ASE formatted method and basis
Symm(None)
scf(xqc)
pop(None)
freq
opt(CalcFC, Tight)

Gaussian input prepared by ASE

0 1
C                -0.5680008095        0.9849279081        2.2741667157
C                -1.2152580240        1.0165348154        0.8647040534
F                -1.2710503968       -0.2211473839        0.3802330860
F                -2.4486433680        1.5225954874        0.9719155119
S                -0.2343027972        2.1713736602       -0.3077895721
O                 0.9656734254        0.0000000000        0.0000000000
O                -0.2669513370        3.4717430238        0.3571766762
O                 1.2422391943        1.3943354574        0.0000000000
F                 0.5823933591        0.3318537324        2.2539198943
F                -0.3491620534        2.2380591024        2.6844059301
F                -1.3867454116        0.3916009740        3.1353201066
H                 0.0000000000        0.0000000000        0.0000000000


