%mem=28GB
%nprocshared=8
#P am1 
Symm(None)
scf(xqc)
pop(None)
force

Gaussian input prepared by ASE

0 1
C                -0.7694331029        0.2187553926        1.3477007485
C                -0.5073968127       -0.0088007585       -0.1732378580
F                -0.8015806447       -1.2196513367       -0.5735429283
F                -1.2292320829        0.8016164008       -0.9474789846
S                 1.2648128777        0.5591671574        0.0140487163
O                 1.3167070344        0.2711361911        1.4747094022
O                 2.1721042813       -0.3669960963       -0.6019183260
O                 2.2323716770        1.8734352169        0.0347905879
F                 0.9419989073       -1.0191300809        1.3020340096
F                -0.7472844290        1.3855893993        1.8834157199
F                -0.9918887685       -0.6661912991        2.2247731942
H                 3.1692430630        1.7690958134       -0.1670012817


