%mem=28GB
%nprocshared=8
#P am1 
Symm(None)
scf(xqc)
pop(None)
force

Gaussian input prepared by ASE

0 1
C                 1.8559861217       -0.8022795178       -1.1154124954
C                 1.9102844728        0.0092016309        0.1481560081
F                -0.5573142058        1.0674860888       -0.6895719979
F                 2.1516280317       -0.7049957503        1.2449062004
S                 1.8221219195        1.6667517980        0.2742629370
O                 0.3165050805        1.9028013409        0.5278690700
O                 2.6218567433        2.4108801709        1.1882286565
O                 1.9323335972        2.2963772211       -1.1586306440
F                 1.6366187562       -0.0599944314       -2.2073884697
F                 2.9841557412       -1.4721829924       -1.3795770437
F                 0.8945019912       -1.7242138970       -1.1353444713
H                 1.3580717507        2.0428883382       -1.8998597501


