%mem=28GB
%nprocshared=8
#P wb97xd/6-311++G(d,p) ! ASE formatted method and basis
Symm(None)
scf(xqc)
pop(None)
opt(NoFreeze,TS,CalcAll,NoEigentest,MaxCycle=999)

Gaussian input prepared by ASE

0 1
C                -0.3121659232        1.2977844087        0.4711431922
C                 0.0000000000        0.0000000000        0.0000000000
F                -0.3127936487       -1.0343602492        0.7682291073
F                -0.3996643308       -0.3192710280       -1.2199861848
S                 2.3019423409        0.0000000000        0.0000000000
O                 2.2610712000       -0.5811791069        1.3162406483
O                 2.2394969122       -0.5141472662       -1.3422813942
O                 3.7046811077        0.7865449905        0.0000000000
F                 1.5840961381        1.8215075890        0.2853121654
F                -0.6498749991        2.2864428074       -0.2656917086
F                -0.3384549089        1.6413975486        1.7000871389
H                 3.9920466197        1.2931858675        0.7708107577


