%mem=28GB
%nprocshared=8
#P wb97xd/6-311++G(d,p) ! ASE formatted method and basis
Symm(None)
scf(xqc)
pop(None)
freq
opt(CalcFC, Tight)

Gaussian input prepared by ASE

0 1
C                -0.6587158030        0.3721140312       -1.3460146582
C                 0.0000000000        0.0000000000        0.0000000000
F                -0.4495483322        0.7559579785        0.9694481731
F                -0.4690183580       -1.3263589163        0.3185483677
S                 1.9504085507        0.0000000000        0.0000000000
O                -0.7276799896       -1.5465982473        1.9136580853
O                 2.2501862221       -0.4194511499       -1.3604472062
O                 2.0441409861        1.6315803765        0.0000000000
F                -0.3144764632        1.6169133252       -1.6537611066
F                -0.2343415799       -0.4460119717       -2.2994381526
F                -1.9812987007        0.2956844029       -1.2607514617
H                 1.8116038338        1.9305585805        0.9002737782


