%mem=28GB
%nprocshared=8
#P wb97xd/6-311++G(d,p) ! ASE formatted method and basis
Symm(None)
scf(xqc)
pop(None)
freq
opt(CalcFC, Tight)

Gaussian input prepared by ASE

0 1
C                 2.1759090657        4.1753623158        0.1028000333
C                 2.0408065661        3.5368252176       -1.3045178353
F                 0.8248309828        3.7851172394       -1.7835132281
F                 2.9674114903        4.0714251229       -2.1072863967
S                 2.3805687083        1.6527151520       -1.2313183555
O                 0.9656734254        0.0000000000        0.0000000000
O                 3.7351936150        1.5516481366       -0.6937466480
O                 1.2422391943        1.3943354574        0.0000000000
F                 1.1733026175        3.8137577201        0.8866016551
F                 3.3256022101        3.7774599380        0.6563375440
F                 2.1883706358        5.4994668761        0.0000549135
H                 0.0000000000        0.0000000000        0.0000000000


