%mem=28GB
%nprocshared=8
#P wb97xd/6-311++G(d,p) ! ASE formatted method and basis
Symm(None)
scf(xqc)
pop(None)
opt(NoFreeze,TS,CalcAll,NoEigentest,MaxCycle=999)

Gaussian input prepared by ASE

0 1
C                -0.8174775245        0.7551159467       -1.0725497524
C                 0.0000000000        0.0000000000        0.0000000000
F                -0.3258322361        0.4645319826        1.2140535138
F                -0.3123019984       -1.3020702896       -0.0572614415
S                 2.0418452208        0.0000000000        0.0000000000
O                 1.9521805276       -0.5144889963        1.4552813225
O                 3.5347191390       -0.2666039325        0.5773745364
O                 2.0539661386        1.6213074631        0.0000000000
F                -0.6437603260        2.0662792609       -0.9564763295
F                -0.4485049061        0.3766626971       -2.2925302227
F                -2.1170804296        0.4890311905       -0.9238507614
H                 1.3105802578        1.9403731560        0.5274394862


