%mem=28GB
%nprocshared=8
#P wb97xd/6-311++G(d,p) ! ASE formatted method and basis
Symm(None)
scf(xqc)
pop(None)
freq
opt(CalcFC, Tight)

Gaussian input prepared by ASE

0 1
C                 2.6681878733        0.0771657753       -2.6250059050
C                 2.6494046383       -0.5104762069       -1.2431526832
F                -0.4143377334       -1.3383863229        0.1467950563
F                 2.8675203119       -1.8410145824       -1.2424087189
S                 1.7099529512        0.0000000000        0.0000000000
O                 0.0000000000        0.0000000000        0.0000000000
O                 1.9107935694       -0.6795102801        1.2424758301
O                 1.8163794847        1.5768046120        0.0000000000
F                 2.5615336334        1.4153037910       -2.5962745194
F                 3.8297854580       -0.2320389467       -3.2075579119
F                 1.6957190519       -0.3873861781       -3.4185331488
H                 1.5535372771        1.9355116829        0.8586341191


