%mem=28GB
%nprocshared=8
#P wb97xd/6-311++G(d,p) ! ASE formatted method and basis
Symm(None)
scf(xqc)
pop(None)
opt(NoFreeze,TS,CalcAll,NoEigentest,MaxCycle=999)

Gaussian input prepared by ASE

0 1
C                -0.3276821867        1.3691242349        0.1476179401
C                 0.0000000000        0.0000000000        0.0000000000
F                -0.3462632398       -0.8254359987        0.9780972000
F                -0.3567404768       -0.6002494054       -1.1235963421
S                 2.3019423407        0.0000000000        0.0000000000
O                 2.2627388581       -0.5707540442        1.3208451673
O                 2.2359726879       -0.5172920247       -1.3409038550
O                 3.7111603807        0.7748764961        0.0000000000
F                 1.5917181983        1.8360256107        0.1979588935
F                -0.5191754140        2.1836557555       -0.8189674241
F                -0.5182141393        1.9612115482        1.2621557425
H                 3.8908940067        1.4804752509       -0.6350113054


