%mem=28GB
%nprocshared=8
#P wb97xd/6-311++G(d,p) ! ASE formatted method and basis
Symm(None)
scf(xqc)
pop(None)
opt(NoFreeze,TS,CalcAll,NoEigentest,MaxCycle=999)

Gaussian input prepared by ASE

0 1
C                -0.8174775245        0.5512973590        1.1902244689
C                 0.0000000000        0.0000000000        0.0000000000
F                -0.3258322361       -1.2836671758       -0.2047302591
F                -0.3123019984        0.7006250078       -1.0989952275
S                 2.0418452208        0.0000000000        0.0000000000
O                 1.9521805276       -0.5144889963        1.4552813225
O                 3.5347191390       -0.2666039325        0.5773745364
O                 2.0539661386        1.6213074631        0.0000000000
F                -0.6437603260       -0.2048068310        2.2676884960
F                -0.4485049061        1.7970580633        1.4724645757
F                -2.1170804296        0.5555626334        0.8854388149
H                 2.8859377992        1.9285957604        0.3821190313


