%mem=28GB
%nprocshared=8
#P am1 
Symm(None)
scf(xqc)
pop(None)
force

Gaussian input prepared by ASE

0 1
C                -0.9145033520       -0.4213927231        1.0827497438
C                 0.0829331180        0.4299369646        0.2677647629
F                -0.2150197773        0.4206884944       -1.0206370918
F                -0.0296212996        1.7294545692        0.6031103375
S                 1.9162334800       -0.0599948269        0.6071387072
O                 1.8243906250        2.5234980935        1.3081313412
O                 2.0991719547       -1.4002336531        0.0767916241
O                 2.6015029671        0.7613310627       -0.6009634148
F                -1.0750819347       -1.6432186691        0.6023962168
F                -0.5399624890       -0.5779665354        2.3520941220
F                -2.1319988611        0.1065299639        1.1428798082
H                 2.4323775690        1.7294012593       -0.6031611571


