%mem=28GB
%nprocshared=8
#P am1 
Symm(None)
scf(xqc)
pop(None)
force

Gaussian input prepared by ASE

0 1
C                 1.8718549895       -0.7926399459       -1.1588408681
C                 1.8780998151        0.0131608563        0.1095050618
F                -0.8344149241        0.7553165485        0.0619008446
F                 2.0197181479       -0.7019886746        1.2229191772
S                 1.8005989558        1.6733775217        0.2034326425
O                 0.2995300499        2.0378867632        0.1744037722
O                 2.4796243565        2.4130512170        1.2136026724
O                 2.1870666918        2.2760379491       -1.1927055670
F                 1.6766289975       -0.0448259727       -2.2516271202
F                 3.0074195458       -1.4590603065       -1.3990435027
F                 0.9136714303       -1.7170393980       -1.2055520706
H                 1.6269519440        2.1794434421       -1.9803570420


