%mem=28GB
%nprocshared=8
#P wb97xd/6-311++G(d,p) ! ASE formatted method and basis
Symm(None)
scf(xqc)
pop(None)
freq
opt(CalcFC, Tight)

Gaussian input prepared by ASE

0 1
C                -0.6626839933       -1.3258198194       -0.4807308132
C                 0.0000000000        0.0000000000        0.0000000000
F                -0.4216252221        0.9948565742       -0.7746845488
F                -0.3629106638        0.2322638742        1.2623662818
S                 1.8845052028        0.0000000000        0.0000000000
O                 2.2839988644       -0.5069821853        1.2729866654
O                 2.3131863105       -0.5569821170       -1.2519823668
O                 2.1818286875        1.5770250178        0.0000000000
F                -0.6090920193       -1.4225114862       -1.8021662847
F                -0.0380465483       -2.3782000791        0.0504795725
F                -1.9319737399       -1.3459852105       -0.0998129411
H                 2.3755137345        1.8782759616       -0.8977237715


