%mem=28GB
%nprocshared=8
#P am1 
Symm(None)
scf(xqc)
pop(None)
force

Gaussian input prepared by ASE

0 1
C                 1.8505581071       -0.0668291791       -0.1001779338
C                 2.3699463665        1.2332556605        0.1088270627
F                 3.0812188246        1.4517015842        1.2062284577
F                 3.0511810849        1.7852100676       -0.8817775248
S                 0.4705553548        2.4926644298        0.4330829455
O                 0.6304598150        2.2943688615        1.8497828007
O                 0.9976967887        3.4216975001       -0.5307560697
O                -1.1163100668        2.7031320163        0.2785171073
F                 0.0269507066        0.6827054424       -0.2316421702
F                 1.6964251710       -0.6228190148       -1.2410271179
F                 1.5061974885       -0.8730613373        0.8274371783
H                -1.7419596410        2.1575389688        0.7727882643


