%mem=28GB
%nprocshared=8
#P wb97xd/6-311++G(d,p) ! ASE formatted method and basis
Symm(None)
scf(xqc)
pop(None)
freq
opt(CalcFC, Tight)

Gaussian input prepared by ASE

0 1
C                -0.6626839933        0.2465848131        1.3885590511
C                 0.0000000000        0.0000000000        0.0000000000
F                -0.4216252221       -1.1683247863       -0.4742287920
F                -0.3629106638        0.9771093319       -0.8323295563
S                 1.8845052028        0.0000000000        0.0000000000
O                 2.2839988644       -0.5069821853        1.2729866654
O                 2.3131863105       -0.5569821170       -1.2519823668
O                 2.1818286875        1.5770250178        0.0000000000
F                -0.6090920193       -0.8494660413        2.1330142266
F                -0.0380465483        1.2328166317        2.0343418975
F                -1.9319737399        0.5865520626        1.2155638560
H                 1.4132364920        2.0596983358        0.3323650154


