%mem=28GB
%nprocshared=8
#P wb97xd/6-311++G(d,p) ! ASE formatted method and basis
Symm(None)
scf(xqc)
pop(None)
freq
opt(CalcFC, Tight)

Gaussian input prepared by ASE

0 1
C                 1.5543396368       -0.9878943640       -1.9593520518
C                 1.4887556831        0.4801949942       -2.4562808954
F                 2.0281804329        0.5565746436       -3.6698991311
F                 0.2070639250        0.8599280258       -2.4998718280
S                 2.3805687083        1.6527151520       -1.2313183555
O                 0.9656734254        0.0000000000        0.0000000000
O                 2.2024124537        2.9819459010       -1.8106390656
O                 1.2422391943        1.3943354574        0.0000000000
F                 2.7814575628       -1.4708312764       -2.0655409891
F                 1.1785291813       -1.0341523456       -0.6774974950
F                 0.7286788912       -1.7448866648       -2.6729427795
H                 0.0000000000        0.0000000000        0.0000000000


