%mem=28GB
%nprocshared=8
#P wb97xd/6-311++G(d,p) ! ASE formatted method and basis
Symm(None)
scf(xqc)
pop(None)
opt(NoFreeze,TS,CalcAll,NoEigentest,MaxCycle=999)

Gaussian input prepared by ASE

0 1
C                -0.5887308291       -1.3973946311       -0.2907344552
C                 0.0000000000        0.0000000000        0.0000000000
F                -0.5078246400        0.9152262909       -0.8082795140
F                -0.3782729356        0.4208768960        1.2221470372
S                 1.9277442912        0.0000000000        0.0000000000
O                 1.3072199692        0.8484084963        2.4636180796
O                 2.3489727721       -0.2703038182       -1.3639930490
O                 2.1580200356        1.5970768002        0.0000000000
F                -0.5154829765       -1.7418414188       -1.5656363326
F                 0.0307179234       -2.3667145538        0.3821202823
F                -1.8701634858       -1.5090212930        0.0410533348
H                 3.0958574632        1.8887963504        0.0335976105


