%mem=28GB
%nprocshared=8
#P am1 
Symm(None)
scf(xqc)
pop(None)
force

Gaussian input prepared by ASE

0 1
C                -0.4544674622        0.0341670272        1.2425945820
C                -0.3050182761        0.3126647824       -0.2850865293
F                -0.7619346621       -0.6494945133       -1.0456305641
F                -0.9324387447        1.4188686818       -0.6850013000
S                 1.3895092865        0.2944396151        0.5065167933
O                 1.3692414787        0.8152294761        1.9020668839
O                 2.1015365758       -0.7369068370       -0.1932831267
O                 1.9430659778        1.6265577554       -0.2569931161
F                 1.1762256013       -1.0043326119        2.0945507125
F                -0.8644884172        0.9592313503        2.0332457923
F                -1.0684637007       -1.0218471708        1.5738421377
H                 2.4576543429        1.5494484447       -1.0685292656


