%mem=28GB
%nprocshared=8
#P wb97xd/6-311++G(d,p) ! ASE formatted method and basis
Symm(None)
scf(xqc)
pop(None)
freq
opt(CalcFC, Tight)

Gaussian input prepared by ASE

0 1
C                 2.0478155593        0.4922040870       -2.8853093144
C                 1.3503946837        0.0000000000        0.0000000000
F                 0.0000000000        0.0000000000        0.0000000000
F                 1.7722704782       -0.6752161935        1.0514946879
S                 1.8879906000       -0.8874842606       -1.5977116819
O                 0.8424129188       -1.7634416089       -2.0574443887
O                 3.2290865430       -1.3477346905       -1.2883859410
O                 1.8736011381        1.2231899023        0.0000000000
F                 2.1834910671       -0.0913296774       -4.0612053607
F                 0.9485020520        1.2277713071       -2.8728730870
F                 3.0995184609        1.2455483803       -2.6361255087
H                 1.7510865697        1.6352502837       -0.8669604178


