%mem=28GB
%nprocshared=8
#P wb97xd/6-311++G(d,p) ! ASE formatted method and basis
Symm(None)
scf(xqc)
pop(None)
freq
opt(CalcFC, Tight)

Gaussian input prepared by ASE

0 1
C                -0.6626839933        1.0792350063       -0.9078282379
C                 0.0000000000        0.0000000000        0.0000000000
F                -0.4216252221        0.1734682120        1.2489133408
F                -0.3629106638       -1.2093732060       -0.4300367255
S                 1.8845052028        0.0000000000        0.0000000000
O                 2.2839988644       -0.5069821853        1.2729866654
O                 2.3131863105       -0.5569821170       -1.2519823668
O                 2.1818286875        1.5770250178        0.0000000000
F                -0.6090920193        2.2719775275       -0.3308479419
F                -0.0380465483        1.1453834474       -2.0848214700
F                -1.9319737399        0.7594331479       -1.1157509149
H                 1.4132364920        2.0596983358        0.3323650154


