%mem=28GB
%nprocshared=8
#P wb97xd/6-311++G(d,p) ! ASE formatted method and basis
Symm(None)
scf(xqc)
pop(None)
opt(NoFreeze,TS,CalcAll,NoEigentest,MaxCycle=999)

Gaussian input prepared by ASE

0 1
C                 3.9766713684        2.1222011135        1.7837119024
C                 3.2315300877        0.8429504700        1.3016429998
F                 4.0908874046       -0.0458874276        0.8293634259
F                 2.6341172196        0.2379789324        2.3116933212
S                 1.9762821264        1.2068485371       -0.1222497156
O                -0.3119155331        1.0832876459        0.1691137064
O                 2.4373556138        2.3743080557       -0.8576801464
O                 1.2267318990       -0.0042798677       -0.5685597302
F                 4.6666609298        2.7149172274        0.8258699866
F                 3.1441173343        3.0350700936        2.2749337624
F                 4.8458075356        1.8611248600        2.7531424750
H                -0.6713479862        1.1722423597        1.0675750124


