%mem=28GB
%nprocshared=8
#P wb97xd/6-311++G(d,p) ! ASE formatted method and basis
Symm(None)
scf(xqc)
pop(None)
freq
opt(CalcFC, Tight)

Gaussian input prepared by ASE

0 1
C                 3.0465729086        4.2408506607       -2.2528364180
C                 2.0408065661        3.5368252176       -1.3045178353
F                 2.1218889380        4.0846180159       -0.0949597207
F                 0.8072141097        3.6939365929       -1.7968559048
S                 2.3805687083        1.6527151520       -1.2313183555
O                 0.9656734254        0.0000000000        0.0000000000
O                 3.7351936150        1.5516481366       -0.6937466480
O                 1.2422391943        1.3943354574        0.0000000000
F                 4.2587043103        4.2687473095       -1.7234199487
F                 3.0939337375        3.5776119583       -3.4123172414
F                 2.6498161662        5.4859324447       -2.4901551388
H                 0.0000000000        0.0000000000        0.0000000000


