%mem=28GB
%nprocshared=8
#P wb97xd/6-311++G(d,p) ! ASE formatted method and basis
Symm(None)
scf(xqc)
pop(None)
freq
opt(CalcFC, Tight)

Gaussian input prepared by ASE

0 1
C                -0.7921069474        0.3288552790       -1.2935380942
C                 0.0000000000        0.0000000000        0.0000000000
F                -0.3227526944        0.9029019353        0.9417065690
F                -0.3586630983       -1.2202134942        0.4334535909
S                 1.9214702311        0.0000000000        0.0000000000
O                 2.1496886965       -0.5263118439        1.4635299875
O                 3.5044424276       -0.0643562681        1.0043667967
O                 1.9228348967        1.6177724188        0.0000000000
F                -0.3036882257        1.4251591078       -1.8647432686
F                -0.7369881882       -0.6755391264       -2.1560021131
F                -2.0703454285        0.5461691062       -0.9831105262
H                 1.6024311085        1.9082439773       -0.8644531094


