%mem=28GB
%nprocshared=8
#P M062X/Def2TZVPP ! ASE formatted method and basis
Symm(None)
scf(xqc)
pop(None)
freq
opt(CalcFC)

Gaussian input prepared by ASE

0 2
C                 1.5461575816        0.0000000000        0.0000000000
O                 2.2041013176       -0.9885600670        0.0326741285
C                 0.0000000000        0.0000000000        0.0000000000
C                -0.5889268974       -1.3859533811       -0.1831555097
F                -0.1778424694       -1.9913848660       -1.2771832788
F                -0.5087063499       -2.1714505694        0.8636823132
F                -0.4482267411        0.4991929994        1.1639905713
F                -0.4207030945        0.7709719544       -1.0055482068
O                 2.0003964672        1.2517902355        0.0000000000
H                 1.6939932532        1.6878194999       -0.8071793731


