%mem=28GB
%nprocshared=8
#P M062X/Def2TZVPP ! ASE formatted method and basis
Symm(None)
scf(xqc)
pop(None)
freq
opt(CalcFC)

Gaussian input prepared by ASE

0 2
C                 1.5461575816        0.0000000000        0.0000000000
O                 2.2041013176       -0.9885600670        0.0326741285
C                 0.0000000000        0.0000000000        0.0000000000
C                -0.5889268974        0.5343593663        1.2918485913
F                -0.1778424694       -0.1103807317        2.3631815221
F                -0.5087063499        1.8336961087        1.4486901995
F                -0.4482267411        0.7584489048       -1.0143091045
F                -0.4207030945       -1.2563162690       -0.1649071947
O                 2.0003964672        1.2517902355        0.0000000000
H                 1.6527274361        1.7027936850        0.7818344599


