%mem=28GB
%nprocshared=8
#P M062X/Def2TZVPP ! ASE formatted method and basis
Symm(None)
scf(xqc)
pop(None)
freq
opt(CalcFC)

Gaussian input prepared by ASE

0 2
C                 1.5284800000        0.0347070000       -0.0143280000
O                 2.2180490000       -0.8937220000        0.0958880000
C                -0.0352950000       -0.0287000000       -0.0172410000
C                -0.5835890000        0.3727470000        1.3658900000
F                -1.9048010000        0.3175890000        1.3627160000
F                -0.1151810000       -0.4569510000        2.2886610000
F                -0.2006600000        1.6068520000        1.6613670000
F                -0.4991860000        0.8244310000       -0.9328120000
F                -0.4661750000       -1.2584360000       -0.3101640000


