%mem=28GB
%nprocshared=8
#P M062X/Def2TZVPP ! ASE formatted method and basis
Symm(None)
scf(xqc)
pop(None)
freq
opt(CalcFC)

Gaussian input prepared by ASE

0 1
C                 0.7086664662        1.9727815070        1.0073158153
O                 0.9684535557        0.0000000000        0.0000000000
C                -0.8104222377        1.6976000514        0.9563466565
C                -1.4103022333        0.8731904538       -0.2018598644
F                -2.7218677248        0.7559295066       -0.0523352226
F                -1.1699957544        1.4686746729       -1.3658445417
F                -0.8779969589       -0.3447003102       -0.2260606853
F                -1.1202912996        1.0589817837        2.0949290576
F                -1.4137384454        2.8959534741        0.9396383372
O                 1.2086901024        1.4228828282        0.0000000000
H                 0.0000000000        0.0000000000        0.0000000000


