%mem=28GB
%nprocshared=8
#P M062X/Def2TZVPP ! ASE formatted method and basis
Symm(None)
scf(xqc)
pop(None)
freq
opt(CalcFC)

Gaussian input prepared by ASE

0 1
C                 0.0000000000        0.0000000000        0.0000000000
O                 1.3589502766        0.0000000000        0.0000000000
C                 2.0509893753        1.8554845325        1.4124318456
C                 1.9977542410        1.2255875574        0.0000000000
F                 2.7574725386        2.9750915627        1.3691111132
F                 3.2460222875        0.9951697074       -0.3955588291
F                 1.4306353300        2.0806882913       -0.8385633626
F                 0.8348526577        2.1275478638        1.8509821720
F                 2.6340560464        1.0089815726        2.2515516258
O                -0.3568335678        0.6288886983        1.0711861420
H                -0.8942426219        0.0812112898        1.6761249739


