%mem=28GB
%nprocshared=8
#P am1 
Symm(None)
scf(xqc)
pop(None)
force

Gaussian input prepared by ASE

0 1
C                 2.3413829889        1.2193354176       -0.0925875863
O                 1.8783362414        2.1773953855        0.5268983035
C                 1.9036185602       -0.1148485723       -0.0630598225
C                 1.6315716418       -0.8861139616        1.2283688900
F                 2.0920439010       -2.1396151763        1.1380787464
F                 2.2096505988       -0.3726880610        2.2816638796
F                 0.3466858935       -1.0117975356        1.5113661757
F                 0.4572938562        1.3561716955        1.4941474601
F                 1.8202830827       -0.7896124655       -1.1525089472
O                 3.0712953728        1.5258203763       -1.1684808447
H                 3.1367728625        2.4822358974       -1.2859662545


