%mem=28GB
%nprocshared=8
#P M062X/Def2TZVPP ! ASE formatted method and basis
Symm(None)
scf(xqc)
pop(None)
freq
opt(CalcFC)

Gaussian input prepared by ASE

0 1
C                 0.7086664662        1.9727815070        1.0073158153
O                 0.9684535557        0.0000000000        0.0000000000
C                -0.8104222377        1.6976000514        0.9563466565
C                -1.4986664580        0.9334006150        2.1066808052
F                -2.7956089503        0.8079115570        1.8648038637
F                -0.9737557592       -0.2813267828        2.2336260503
F                -1.3448852829        1.5882217320        3.2533076637
F                -1.4113560227        2.8936886237        0.8642992522
F                -1.0330902912        0.9997820578       -0.1678372812
O                 1.2086901024        1.4228828282        0.0000000000
H                 0.0000000000        0.0000000000        0.0000000000


