%mem=28GB
%nprocshared=8
#P M062X/Def2TZVPP ! ASE formatted method and basis
Symm(None)
scf(xqc)
pop(None)
freq
opt(CalcFC)

Gaussian input prepared by ASE

0 1
C                 1.5441508320        0.0000000000        0.0000000000
O                 2.1880701872       -0.9980236103        0.0085068721
C                 0.0000000000        0.0000000000        0.0000000000
C                -0.5940990153       -1.3821366214       -0.3495203210
F                -1.9083202659       -1.2893232316       -0.4728047785
F                -0.0801525582       -1.8078265456       -1.4981858444
F                -0.3136112947       -2.2652841335        0.5975748351
F                -0.4654785740        0.3602866567        1.2055558280
F                -0.4301915707        0.8711005158       -0.9125141382
O                 2.0112635050        1.2442066754        0.0000000000
H                 2.9778678394        1.2069534398        0.0140906575


