%mem=28GB
%nprocshared=8
#P M062X/Def2TZVPP ! ASE formatted method and basis
Symm(None)
scf(xqc)
pop(None)
opt(NoFreeze,TS,CalcAll,NoEigentest,MaxCycle=999)

Gaussian input prepared by ASE

0 1
C                 2.2532567110        1.0573484004       -0.2180475911
O                 1.5956191183        1.3372448734       -1.2206566979
C                 1.4345512760        0.0000197305        0.2112938155
C                 1.8886717528       -1.0153765248        1.2598132658
F                 2.8765381000       -1.7969723694        0.8073968516
F                 2.3411881134       -0.4636142680        2.3543448453
F                 0.9285006908       -1.8444870614        1.6305730632
F                 0.3863225291        2.3364096755       -0.1396327110
F                 0.2669970703       -0.1850782119       -0.2904099473
O                 3.3736140774        1.6052699868        0.2603175995
H                 3.5436755609        2.4155187687       -0.2370724936


