%mem=28GB
%nprocshared=8
#P am1 
Symm(None)
scf(xqc)
pop(None)
force

Gaussian input prepared by ASE

0 1
C                 2.1599532381        1.0956602624       -0.1138931743
O                 1.1004499472        1.7157797808       -0.3485557835
C                 1.9837413781       -0.3371785463       -0.1706988282
C                -0.2259877587        0.4689671057        0.0405535352
F                -0.5533103557       -0.7702317320        0.3021082989
F                -0.4707237928        1.2068937501        1.1035700695
F                -0.8154801373        0.8590258300       -1.0513504101
F                 2.3334322152       -0.9859764758       -1.2922180766
F                 2.3715426020       -1.1162773371        0.8673549258
O                 3.2840011178        1.7378470265        0.0548105688
H                 3.1608075461        2.6959303358       -0.0057061257


