%mem=28GB
%nprocshared=8
#P M062X/Def2TZVPP ! ASE formatted method and basis
Symm(None)
scf(xqc)
pop(None)
opt(NoFreeze,TS,CalcAll,NoEigentest,MaxCycle=999)

Gaussian input prepared by ASE

0 1
C                 1.5550444424        0.0000000000        0.0000000000
O                 2.1477803585       -0.8488328909        0.6728156148
C                 0.0000000000        0.0000000000        0.0000000000
C                 1.5888977422       -0.4154500378       -1.6650337484
F                 1.1136563405       -1.6370977131       -1.8715438075
F                 0.9503637894        0.4257485213       -2.4800697911
F                 2.8698607866       -0.3912639837       -1.9581495686
F                -0.6263126560       -1.0838303126        0.1466323607
F                -0.7284006153        0.9089193555       -0.4921301674
O                 1.9265324729        1.3466960246        0.0000000000
H                 2.7587124074        1.3586941546        0.4870153736


