%mem=28GB
%nprocshared=8
#P M062X/Def2TZVPP ! ASE formatted method and basis
Symm(None)
scf(xqc)
pop(None)
opt(NoFreeze,TS,CalcAll,NoEigentest,MaxCycle=999)

Gaussian input prepared by ASE

0 1
C                 1.7748364675        0.0000000000        0.0000000000
O                 1.2662056190       -0.4029226259       -1.0881683961
C                 0.0000000000        0.0000000000        0.0000000000
C                -0.2999776225       -1.1277450892        1.0230099985
F                -1.6146452810       -1.2509545138        1.1499068262
F                 0.1999113071       -2.2813817754        0.6097064719
F                 0.2019749462       -0.8345236741        2.2089873086
F                -0.2252094436        1.2110869675        0.5218597124
F                -0.9442015685       -0.0807778758       -0.9685652007
O                 3.0185931931        0.3729996751        0.0000000000
H                 3.0719967827        1.3104715916        0.2776190638


