%mem=28GB
%nprocshared=8
#P M062X/Def2TZVPP ! ASE formatted method and basis
Symm(None)
scf(xqc)
pop(None)
opt(NoFreeze,TS,CalcAll,NoEigentest,MaxCycle=999)

Gaussian input prepared by ASE

0 1
C                 0.9986090868        0.2660161174        0.2456526431
O                 0.4202742292       -0.5378797448       -0.4861016954
C                 1.5420907941        1.4776962850       -0.2112538547
C                 1.0840570853        2.1174733111       -1.5217802174
F                 0.8718343532        3.4296006421       -1.3643610610
F                 1.9870910888        2.0257467391       -2.4825262662
F                -0.0334790240        1.6327291778       -1.9943100253
F                 1.6960902266       -0.4734507407       -1.8990778621
F                 2.4199256754        2.1266810073        0.4651182016
O                 1.3006181525       -0.1058561125        1.4925455132
H                 1.0301843320       -1.0212706818        1.6397676241


