%mem=28GB
%nprocshared=8
#P M062X/Def2TZVPP ! ASE formatted method and basis
Symm(None)
scf(xqc)
pop(None)
freq
opt(CalcFC)

Gaussian input prepared by ASE

0 1
C                 0.7131326315        1.9720274491       -1.0099308510
O                 0.9684535557        0.0000000000        0.0000000000
C                 1.0316909233        3.4793317454       -0.8980936831
C                 1.8287025700        4.0155346038        0.3094693457
F                 1.9909848604        5.3269192101        0.2082435623
F                 1.1820327556        3.7566537442        1.4417271961
F                 3.0282169200        3.4448680061        0.3614063873
F                 1.7225595164        3.8055375998       -2.0010498649
F                -0.1477448793        4.1190098072       -0.9060752032
O                 1.2086901024        1.4228828282        0.0000000000
H                 0.0000000000        0.0000000000        0.0000000000


