%mem=28GB
%nprocshared=8
#P M062X/Def2TZVPP ! ASE formatted method and basis
Symm(None)
scf(xqc)
pop(None)
freq
opt(CalcFC)

Gaussian input prepared by ASE

0 1
C                 0.7086664662        1.9727815070        1.0073158153
O                 0.9684535557        0.0000000000        0.0000000000
C                 1.3740370152        1.3272773460        2.2428560168
C                 2.1701398695        2.1975457575        3.2377442901
F                 2.6533024632        1.4496031708        4.2192979473
F                 3.1865995545        2.7921773181        2.6209525880
F                 1.3847831254        3.1309444705        3.7661135976
F                 0.3917405085        0.7341758337        2.9382308657
F                 2.2163482951        0.3927202345        1.7765564852
O                 1.2086901024        1.4228828282        0.0000000000
H                 0.0000000000        0.0000000000        0.0000000000


