%mem=28GB
%nprocshared=8
#P M062X/Def2TZVPP ! ASE formatted method and basis
Symm(None)
scf(xqc)
pop(None)
opt(NoFreeze,TS,CalcAll,NoEigentest,MaxCycle=999)

Gaussian input prepared by ASE

0 1
C                 2.4170802608        1.1261016357       -0.1261290629
O                 1.9955188076        1.4860511659        0.9733145634
C                 1.9668757001       -0.2013173855       -0.0376352966
C                 1.7494104978       -0.8990360165        1.3049538561
F                 1.7833455394       -2.2290940597        1.1591923706
F                 2.6605612178       -0.6192782648        2.1986829929
F                 0.5748598055       -0.6333324221        1.8496074874
F                 0.2678395985        1.7308360490        0.2087585665
F                 1.7507968291       -0.9422366428       -1.0640364392
O                 2.9450909987        1.8476131586       -1.1185388984
H                 2.7775557446        2.7799757821       -0.9302501398


