%mem=28GB
%nprocshared=8
#P M062X/Def2TZVPP ! ASE formatted method and basis
Symm(None)
scf(xqc)
pop(None)
freq
opt(CalcFC)

Gaussian input prepared by ASE

0 1
C                 1.3830756258        0.0000000000        0.0000000000
O                 0.0000000000        0.0000000000        0.0000000000
C                 2.0270105595       -1.1450526459        0.1454020824
C                -0.5773278722       -1.0563922470        0.6224222138
F                -0.3642543069       -1.0471922902        1.9318975470
F                -1.8703002950       -1.0126449837        0.3955512160
F                -0.0959636525       -2.2192541874        0.1559078276
F                 3.3295419657       -1.2420429412        0.2128843506
F                 1.4382541181       -2.3069547589        0.2734542199
O                 2.0052476288        1.1923978660        0.0000000000
H                 2.9539648467        1.0738470628        0.1251712724


