%mem=28GB
%nprocshared=8
#P M062X/Def2TZVPP ! ASE formatted method and basis
Symm(None)
scf(xqc)
pop(None)
freq
opt(CalcFC)

Gaussian input prepared by ASE

0 1
C                 2.4335064133        1.6815631550        0.0026150358
O                 0.9684535557        0.0000000000        0.0000000000
C                 3.0186112336        1.0511140864        1.2856347162
C                 4.1282614426       -0.0166380673        1.1880063877
F                 4.4853648821       -0.4213927647        2.3983627631
F                 3.6969209370       -1.0699140212        0.5011555152
F                 5.1981558426        0.4835084179        0.5777835070
F                 3.5100137516        2.0627748927        2.0172684973
F                 1.9888738081        0.4895599896        1.9372621950
O                 1.2086901024        1.4228828282        0.0000000000
H                 0.0000000000        0.0000000000        0.0000000000


