%mem=28GB
%nprocshared=8
#P M062X/Def2TZVPP ! ASE formatted method and basis
Symm(None)
scf(xqc)
pop(None)
freq
opt(CalcFC)

Gaussian input prepared by ASE

0 1
C                 2.4335064133        1.6815631550        0.0026150358
O                 0.9684535557        0.0000000000        0.0000000000
C                 2.5631237990        3.2207678368        0.0014068281
C                 3.2931160220        3.9379834157        1.1562499806
F                 3.2909725279        5.2484462076        0.9587798228
F                 2.6888835486        3.6846907970        2.3129500089
F                 4.5543926889        3.5250197708        1.2326351584
F                 3.2029981059        3.5482839060       -1.1315168706
F                 1.3134149262        3.7077181167       -0.0363780636
O                 1.2086901024        1.4228828282        0.0000000000
H                 0.0000000000        0.0000000000        0.0000000000


