%mem=28GB
%nprocshared=8
#P M062X/Def2TZVPP ! ASE formatted method and basis
Symm(None)
scf(xqc)
pop(None)
freq
opt(CalcFC)

Gaussian input prepared by ASE

0 1
C                 2.4335064133        1.6815631550        0.0026150358
O                 0.9684535557        0.0000000000        0.0000000000
C                 3.0186112336        1.0511140864        1.2856347162
C                 3.7067389148        1.9407329191        2.3420475927
F                 4.1334724955        1.2034858263        3.3572702097
F                 4.7501160941        2.5685297656        1.8087145175
F                 2.8539993685        2.8476301943        2.8084863309
F                 2.0030221956        0.4255381301        1.9000089020
F                 3.9232345409        0.1445120703        0.8855722258
O                 1.2086901024        1.4228828282        0.0000000000
H                 0.0000000000        0.0000000000        0.0000000000


