%mem=28GB
%nprocshared=8
#P M062X/Def2TZVPP ! ASE formatted method and basis
Symm(None)
scf(xqc)
pop(None)
opt(NoFreeze,TS,CalcAll,NoEigentest,MaxCycle=999)

Gaussian input prepared by ASE

0 1
C                 2.2065222913        0.0000000000        0.0000000000
O                 2.6295742205       -0.9533513556       -0.5334564870
C                 0.0000000000        0.0000000000        0.0000000000
C                 0.9326463473       -0.1151267430        1.4317804389
F                 0.4484614208        0.9637540524        2.0454797666
F                 0.4316962163       -1.2823485423        1.8360309284
F                 2.2135320661       -0.1961165561        2.1233907482
F                 0.0146982031        1.0972142236       -0.7089950937
F                -0.0132515142       -1.0177240527       -0.8042949476
O                 2.5995007805        1.2519821147        0.0000000000
H                 2.7546048852        1.5376388469        0.9144563551


