%mem=28GB
%nprocshared=8
#P M062X/Def2TZVPP ! ASE formatted method and basis
Symm(None)
scf(xqc)
pop(None)
freq
opt(CalcFC)

Gaussian input prepared by ASE

0 1
C                 1.4249830854        0.0000000000        0.0000000000
O                 0.0000000000        0.0000000000        0.0000000000
C                 1.8629157277        1.4768510267        0.0000000000
C                 3.2120228725        1.6545172605        0.7184201807
F                 3.6094582624        2.9169969177        0.6450901073
F                 3.1055616098        1.3133900537        1.9916645357
F                 4.1284052946        0.8834737123        0.1394232318
F                 2.0046417529        2.0182055277       -1.2524810191
F                 0.9361862457        2.2101021056        0.6316087235
O                 0.5755923057       -0.0974248050        1.3247314774
H                 0.3991772872        0.8030845269        1.6700460581


