%mem=28GB
%nprocshared=8
#P M062X/Def2TZVPP ! ASE formatted method and basis
Symm(None)
scf(xqc)
pop(None)
freq
opt(CalcFC)

Gaussian input prepared by ASE

0 2
C                 1.4344667972        0.0000000000        0.0000000000
O                 2.0942624594       -1.0095921399       -0.0008081084
C                 0.0000000000        0.0000000000        0.0000000000
F                -0.7323624685        1.0740936256        0.0058587380
F                -0.6821963382       -1.1022715705        0.0036829576
O                 1.9310113740        1.2511120396        0.0000000000
H                 1.6042995158        1.6812954462       -0.8002254680


