%mem=28GB
%chk=1642764945472630600001_well_mp2
%nprocshared=8
#P mp2/6-31G ! ASE formatted method and basis
Symm(None)
scf(xqc)
pop(None)
freq
opt(CalcFC)

Gaussian input prepared by ASE

0 1
C                 1.2153440000        0.1788860000       -0.1275030000
O                 1.8817140000        0.3966710000       -1.0862920000
C                -0.2366500000        0.6845880000        0.0152580000
C                -1.2785910000       -0.4398040000       -0.1732130000
F                -2.4983350000        0.0731810000       -0.1810770000
F                -1.0605870000       -1.0568180000       -1.3293070000
F                -1.1927690000       -1.3266920000        0.8074380000
F                -0.4237370000        1.2263110000        1.2282610000
F                -0.4632460000        1.6105420000       -0.9163140000
O                 1.5751360000       -0.5173820000        0.9458120000
H                 2.4817210000       -0.8294800000        0.8169370000


