%mem=28GB
%chk=1642764945472630600001_intra_H_migration_suprafacial_2_11_IRC_F_prod
%nprocshared=8
#P M062X/Def2TZVPP ! ASE formatted method and basis
Symm(None)
scf(xqc)
pop(None)
freq
opt(CalcFC)

Gaussian input prepared by ASE

0 1
C                -0.4874290000        1.2162950000       -0.7969650000
O                -1.5409340000        1.0499860000       -1.5820120000
C                -0.3788540000        0.2536220000        0.4271140000
C                 0.6185560000       -0.8983770000        0.1561310000
F                 0.6799120000       -1.7055030000        1.2039520000
F                 0.2112380000       -1.5938110000       -0.9008840000
F                 1.8252140000       -0.4142370000       -0.0869400000
F                 0.0813020000        0.9533320000        1.4715150000
F                -1.5543050000       -0.2932300000        0.7583910000
O                 0.3406110000        2.0404880000       -1.0189120000
H                -1.4388530000        1.7069500000       -2.2866410000


