%mem=28GB
%chk=1642764945472630600001_R_Addition_MultipleBond_1_3_8
%nprocshared=8
#P mp2/6-31G ! ASE formatted method and basis
Symm(None)
scf(xqc)
pop(None)
guess(Mix,Always)
opt(NoFreeze,TS,CalcAll,NoEigentest,MaxCycle=999)

Gaussian input prepared by ASE

0 1
C                 1.5999404896       -0.0444629424       -0.1013656952
O                 2.2056802976       -0.8375190440       -0.7479084300
C                 0.0805607176       -0.1313847370        0.1253382900
C                -0.6022885465        0.4678145950        1.3634152231
F                -1.9033261309        0.2285469465        1.3248263900
F                -0.0934139320       -0.1127821876        2.4436891920
F                -0.4137515514        1.7772530157        1.4368682527
F                -0.1327596979        0.7310524939       -0.9748494293
F                -0.4401707089       -1.3165521418       -0.1606318290
O                 2.0775766691        1.0559212587        0.4698345662
H                 3.0132165133        1.2108207630        0.2728206461

1 2 F
1 3 F
1 10 F
3 4 F
3 8 F
3 9 F
4 5 F
4 6 F
4 7 F
10 11 F
1 3 8 F


