%mem=28GB
%chk=1642764945472630600001_r13_insertion_ROR_8_3_1_10_IRC_F_prod
%nprocshared=8
#P M062X/Def2TZVPP ! ASE formatted method and basis
Symm(None)
scf(xqc)
pop(None)
opt(CalcAll,Cartesian,Cartesian)

Gaussian input prepared by ASE

0 1
C                 1.6250780000        1.7535400000       -0.4769500000
O                 2.3431150000        2.6066660000       -0.3893400000
C                -0.4301550000       -0.4178030000       -0.9055080000
C                 0.1104070000       -1.0430050000        0.3979370000
F                -0.4623330000       -2.2338300000        0.5516530000
F                 1.4218620000       -1.2082540000        0.3468110000
F                -0.2007570000       -0.2753140000        1.4217390000
F                -2.4041010000        1.8729680000        1.0952680000
F                 0.1922200000       -0.9055920000       -1.9539200000
O                -1.3219020000        0.3453280000       -0.9787350000
H                -2.0992580000        1.3601390000        0.3822710000


