%mem=28GB
%chk=1642764945472630600001_r12_insertion_R_11_10_1_IRC_R_prod
%nprocshared=8
#P M062X/Def2TZVPP ! ASE formatted method and basis
Symm(None)
scf(xqc)
pop(None)
freq
opt(CalcFC)

Gaussian input prepared by ASE

0 1
C                 1.4161570000        0.0285280000       -0.5840490000
O                 2.1356020000       -0.8106870000       -0.1450700000
C                -0.1349370000       -0.1456740000       -0.5919590000
C                -0.7325880000        0.0555810000        0.8217240000
F                -2.0513440000       -0.0567390000        0.7800140000
F                -0.2496940000       -0.8452250000        1.6603270000
F                -0.4168980000        1.2698330000        1.2621760000
F                -0.7464820000        0.7094820000       -1.4192330000
F                -0.4157140000       -1.3964730000       -0.9793640000
O                 1.8823010000        1.1660160000       -1.0762590000
H                 2.8444670000        1.1095040000       -0.9782620000


