%mem=28GB
%chk=1642764945472630600001_r13_insertion_ROR_8_3_1_2
%nprocshared=8
#P M062X/Def2TZVPP ! ASE formatted method and basis
Symm(None)
scf(xqc)
pop(None)
opt(NoFreeze,TS,CalcAll,NoEigentest,MaxCycle=999)

Gaussian input prepared by ASE

0 1
C                 2.3667370000        1.1917630000       -0.0711040000
O                 1.0344870000        2.3991350000        0.8048890000
C                 1.7986350000       -0.1422770000       -0.0615070000
C                 1.8141000000       -0.8568880000        1.2415900000
F                 1.3801380000       -2.1174080000        1.1511030000
F                 3.0448590000       -0.9593930000        1.7684190000
F                 1.0712670000       -0.2955340000        2.2005670000
F                 0.0481700000        0.8133410000        0.0890440000
F                 1.6010170000       -0.8033730000       -1.1161820000
O                 3.3301770000        1.6312420000       -0.8619560000
H                 3.3993480000        2.5856750000       -0.7269430000

1 2 F
1 3 F
1 10 F
3 4 F
3 8 F
3 9 F
4 5 F
4 6 F
4 7 F
10 11 F


