%mem=28GB
%chk=1642764945472630600001_r12_insertion_R_10_1_3_IRC_F
%nprocshared=8
#P M062X/Def2TZVPP ! ASE formatted method and basis
Symm(None)
scf(xqc)
pop(None)
geom(AllCheck,NoKeepConstants)
guess(Read)
irc(RCFC,forward,MaxPoints=100,StepSize=2)

Gaussian input prepared by ASE

0 1
C                 1.6088260000       -0.8410190000        0.1558300000
O                 2.5502860000       -1.4472460000       -0.0135200000
C                 0.1689240000        0.2327100000       -0.0117750000
C                -0.4534840000        0.4539990000        1.3969380000
F                -1.7294170000        0.0982260000        1.3698550000
F                 0.1666490000       -0.2699660000        2.3196170000
F                -0.3851190000        1.7282390000        1.7315350000
F                -0.1765760000        1.2572820000       -0.8327120000
F                -0.5472970000       -0.7771310000       -0.6367980000
O                 1.7080780000        0.9459690000        0.3429300000
H                 2.0186280000        1.5903440000       -0.3098050000


