%mem=28GB
%chk=1642764945472630600001_r13_insertion_ROR_4_3_1_2_IRC_R_prod
%nprocshared=8
#P M062X/Def2TZVPP ! ASE formatted method and basis
Symm(None)
scf(xqc)
pop(None)
freq
opt(CalcFC)

Gaussian input prepared by ASE

0 1
C                 1.1543090000        0.8847500000        0.0796590000
O                 0.3878500000        1.6074370000        0.6325860000
C                 0.6842200000       -0.5444040000       -0.1360370000
C                -1.1952550000       -0.1072290000        0.0376790000
F                -1.7117710000       -1.2866840000        0.3002440000
F                -1.7666890000        0.6930220000        0.9661580000
F                -1.5909800000        0.4240740000       -1.1098420000
F                 1.3896560000       -1.1046910000       -1.1622930000
F                 0.8710580000       -1.4037790000        0.8579710000
O                 2.3141570000        1.2595380000       -0.4272730000
H                 2.4050200000        2.2071070000       -0.2502210000


