%mem=28GB
%chk=1642764945472630600001_intra_H_migration_1_11_IRC_F_prod
%nprocshared=8
#P M062X/Def2TZVPP ! ASE formatted method and basis
Symm(None)
scf(xqc)
pop(None)
freq
opt(CalcFC)

Gaussian input prepared by ASE

0 1
C                 1.4000110000        0.1463180000       -0.6380750000
O                 2.1846150000       -0.7941790000       -0.1310560000
C                -0.1330610000       -0.1515600000       -0.5896800000
C                -0.7370660000        0.0645730000        0.8173900000
F                -2.0551090000       -0.0487690000        0.7719870000
F                -0.2567390000       -0.8339740000        1.6650310000
F                -0.4213700000        1.2783820000        1.2519200000
F                -0.7435540000        0.6935610000       -1.4242820000
F                -0.4075440000       -1.4077380000       -0.9697050000
O                 1.8370970000        1.1565170000       -1.0850700000
H                 3.0861590000       -0.4522950000       -0.2240340000


