%mem=28GB
%chk=1642764945472630600001_r12_insertion_R_4_3_8_IRC_R
%nprocshared=8
#P M062X/Def2TZVPP ! ASE formatted method and basis
Symm(None)
scf(xqc)
pop(None)
geom(AllCheck,NoKeepConstants)
guess(Read)
irc(RCFC,reverse,MaxPoints=100,StepSize=2)

Gaussian input prepared by ASE

0 1
C                 1.5599830000       -0.0419470000        0.0166770000
O                 2.1619170000       -0.8778680000       -0.5710510000
C                 0.0935160000       -0.2438520000        0.3560650000
C                -0.7451410000        0.6749510000        1.0550910000
F                -1.9548120000        0.3968170000        1.2807520000
F                 0.2651720000       -0.5651180000        2.0905170000
F                -0.3750380000        1.7945200000        1.4909550000
F                -0.6089190000        0.8636180000       -0.8359970000
F                -0.4209670000       -1.3523880000       -0.0314690000
O                 2.0102080000        1.1236100000        0.4510860000
H                 2.9435770000        1.1990600000        0.2094710000


