%mem=28GB
%chk=1642764945472630600001_r12_insertion_R_5_4_7_IRC_F_prod
%nprocshared=8
#P M062X/Def2TZVPP ! ASE formatted method and basis
Symm(None)
scf(xqc)
pop(None)
freq
opt(CalcFC)

Gaussian input prepared by ASE

0 1
C                 1.9746810000       -0.0250300000       -0.8811820000
O                 1.9143220000       -0.9887320000       -1.4993790000
C                -0.7174550000       -0.6728650000       -0.4200040000
C                -1.1878890000        0.0458850000        0.5748630000
F                -1.7679570000        1.1997890000        0.3919750000
F                -1.1496020000       -0.3614710000        1.8131530000
F                 0.4164520000        1.6460730000        1.6138590000
F                -0.7476050000       -0.2636900000       -1.6731910000
F                -0.1940080000       -1.8676340000       -0.2542490000
O                 2.0512130000        0.9559370000       -0.2676880000
H                 1.1366700000        1.6291780000        1.0362160000


