%mem=28GB
%chk=1642764945472630600001_R_Addition_MultipleBond_1_3_4
%nprocshared=8
#P mp2/6-31G ! ASE formatted method and basis
Symm(None)
scf(xqc)
pop(None)
guess(Mix,Always)
opt(NoFreeze,TS,CalcAll,NoEigentest,MaxCycle=999)

Gaussian input prepared by ASE

0 1
C                 1.6592328192        0.0629839402       -0.0585811364
O                 2.3029748533       -0.7734179309        0.4860772956
C                 0.1519923258       -0.0291526936       -0.2449617766
C                -0.1310414000        0.3627812756        1.8495806354
F                -1.3613448973        0.4926854505        1.5730429404
F                 0.3530513138       -0.8064076860        2.0376323593
F                 0.6308933181        1.3628031136        1.7034053272
F                -0.5968195451        1.0220969365       -0.4562288869
F                -0.4522280428       -1.1560308988       -0.0190961428
O                 2.1110218170        1.2493377902       -0.4795281013
H                 3.0690533413        1.3359634469       -0.3302153971

1 2 F
1 3 F
1 10 F
3 4 F
3 8 F
3 9 F
4 5 F
4 6 F
4 7 F
10 11 F
1 3 4 F


