%mem=28GB
%chk=1642804254293321740001_well
%nprocshared=8
#P M062X/Def2TZVPP ! ASE formatted method and basis
Symm(None)
scf(xqc)
pop(None)
freq
opt(CalcFC)

Gaussian input prepared by ASE

0 1
C                 0.0001130000       -0.9067500000        0.9019460000
O                -1.0068450000       -1.5309510000        0.2613300000
C                 0.3549860000        0.3180550000        0.5172020000
C                -0.0767400000        1.0633670000       -0.7179430000
F                -0.9300650000        2.0422360000       -0.4054310000
F                 0.9901470000        1.6333810000       -1.2784860000
F                -0.6523720000        0.2831510000       -1.6190470000
F                -0.4347760000       -2.7010980000       -0.3310820000
F                 1.1633220000        1.0388710000        1.2820920000
O                 0.5457790000       -1.5136200000        1.9573410000
H                -0.0135820000       -2.2508480000        2.2278020000


