%mem=28GB
%chk=1642764945472630600001_r12_insertion_R_4_3_1_IRC_F
%nprocshared=8
#P M062X/Def2TZVPP ! ASE formatted method and basis
Symm(None)
scf(xqc)
pop(None)
geom(AllCheck,NoKeepConstants)
guess(Read)
irc(RCFC,forward,MaxPoints=100,StepSize=2)

Gaussian input prepared by ASE

0 1
C                 1.4111000000        0.2646150000        0.4158550000
O                 2.1292100000       -0.6586170000        0.4820990000
C                -0.6061290000       -0.3405670000       -0.2423870000
C                -0.2859680000        0.3011090000        1.3128710000
F                -1.1074230000        1.3478340000        1.2448700000
F                -0.7428420000       -0.7472940000        1.9976290000
F                 0.6312120000        0.8160010000        2.3224350000
F                -0.4678450000        0.4073870000       -1.3045600000
F                -0.1746710000       -1.5338950000       -0.5119060000
O                 1.6032750000        1.4977600000        0.0104990000
H                 2.5395790000        1.6170680000       -0.2153060000


