%mem=28GB
%chk=1642764945472630600001_r12_insertion_R_2_1_3_IRC_F_prod
%nprocshared=8
#P M062X/Def2TZVPP ! ASE formatted method and basis
Symm(None)
scf(xqc)
pop(None)
freq
opt(CalcFC)

Gaussian input prepared by ASE

0 1
C                 1.3336760000        0.2691360000       -0.8426100000
O                 1.9231540000       -0.4852000000       -1.5439850000
C                -0.0422860000       -0.3664540000       -0.3800110000
C                -0.7864220000        0.1846000000        0.8313300000
F                -1.2710400000        1.3822270000        0.5494740000
F                -1.7803390000       -0.6129490000        1.2015430000
F                 0.0867810000        0.2632080000        1.8297400000
F                -0.8513890000       -0.3743280000       -1.4493030000
F                 0.2285290000       -1.6420770000       -0.0792930000
O                 1.7924350000        1.4901440000       -0.5373070000
H                 2.6447800000        1.5595320000       -0.9944350000


