%mem=28GB
%chk=1642764945472630600001_r12_insertion_R_3_1_2_IRC_R
%nprocshared=8
#P M062X/Def2TZVPP ! ASE formatted method and basis
Symm(None)
scf(xqc)
pop(None)
geom(AllCheck,NoKeepConstants)
guess(Read)
irc(RCFC,reverse,MaxPoints=100,StepSize=2)

Gaussian input prepared by ASE

0 1
C                 1.5546150000        0.6943330000        0.1321050000
O                 1.5700530000       -0.5697920000        0.0489660000
C                -0.0612520000       -0.0328890000        0.0312760000
C                -0.6144560000        0.2675280000        1.4497470000
F                -1.8479940000       -0.2123320000        1.5377970000
F                 0.1351570000       -0.3066540000        2.3770990000
F                -0.6625420000        1.5686810000        1.6714810000
F                -0.6104690000        0.7656780000       -0.8909170000
F                -0.5262760000       -1.2544730000       -0.3259990000
O                 2.6449390000        1.3448700000       -0.1400250000
H                 3.3477170000        0.7064620000       -0.3794330000


