%mem=28GB
%chk=1642804664602161580601_well
%nprocshared=8
#P M062X/Def2TZVPP ! ASE formatted method and basis
Symm(None)
scf(xqc)
pop(None)
freq
opt(CalcFC)

Gaussian input prepared by ASE

0 1
C                -1.4161360000        0.4807180000       -0.8295720000
O                -3.3203800000        0.0212260000        0.2366190000
C                 0.1216740000        0.3689050000       -0.7368820000
C                 0.7781440000       -0.2875330000        0.4956300000
F                 2.0976480000       -0.2813240000        0.3724130000
F                 0.4545110000        0.3770720000        1.6005150000
F                 0.3720060000       -1.5472750000        0.6193010000
F                 0.5183530000       -0.3291120000       -1.8118890000
F                 0.5995790000        1.6200910000       -0.8172620000
O                -1.8784160000       -0.0298910000        0.2157380000
H                -3.4845550000       -0.4069660000        1.0896140000


