%mem=28GB
%chk=1642764945472630600001_r12_insertion_R_2_1_10
%nprocshared=8
#P M062X/Def2TZVPP ! ASE formatted method and basis
Symm(None)
scf(xqc)
pop(None)
opt(NoFreeze,TS,CalcAll,NoEigentest,MaxCycle=999)

Gaussian input prepared by ASE

0 1
C                 1.3259590000       -0.1615160000        0.0590880000
O                 2.7898440000       -0.6054830000        0.7290390000
C                -0.1969600000        0.0910610000        0.0998660000
C                -0.5860140000        0.3105410000        1.5781470000
F                -1.8904950000        0.4841290000        1.7163090000
F                -0.2654960000       -0.7141900000        2.3606210000
F                -0.0175520000        1.3810180000        2.1134470000
F                -0.5251290000        1.1536000000       -0.6505180000
F                -0.8635180000       -0.9181500000       -0.4601980000
O                 2.7410160000        0.6771260000       -0.6718640000
H                 2.4178360000        1.2732720000       -1.3618360000

1 2 F
1 3 F
1 10 F
3 4 F
3 8 F
3 9 F
4 5 F
4 6 F
4 7 F
10 11 F


