%mem=28GB
%chk=1642764945472630600001_r12_insertion_R_4_3_1_IRC_F_prod
%nprocshared=8
#P M062X/Def2TZVPP ! ASE formatted method and basis
Symm(None)
scf(xqc)
pop(None)
opt(CalcAll,Cartesian)

Gaussian input prepared by ASE

0 1
C                 1.0972960000        0.4007810000        0.1289170000
O                 1.1878830000       -0.6325920000       -0.4530390000
C                -1.2416660000       -1.8138050000       -1.5498510000
C                -0.0214310000        0.7011260000        1.1488580000
F                -0.7741030000        1.7086620000        0.7141670000
F                -0.7841120000       -0.3617000000        1.3194190000
F                 0.5048520000        1.0455770000        2.3207800000
F                -1.5575160000       -0.5518300000       -1.5588330000
F                -0.4606540000       -1.9533400000       -2.5709640000
O                 1.8985200000        1.4503220000        0.0116930000
H                 2.5837040000        1.2455570000       -0.6398490000


