%mem=28GB
%chk=1642764945472630600001_r12_insertion_R_11_10_1_IRC_F_prod
%nprocshared=8
#P M062X/Def2TZVPP ! ASE formatted method and basis
Symm(None)
scf(xqc)
pop(None)
freq
opt(CalcFC)

Gaussian input prepared by ASE

0 1
C                 1.3970940000        0.1522130000       -0.6428900000
O                 2.1847500000       -0.7929670000       -0.1495060000
C                -0.1355470000       -0.1471270000       -0.5902620000
C                -0.7335030000        0.0578320000        0.8210630000
F                -2.0515500000       -0.0574010000        0.7807930000
F                -0.2478210000       -0.8461230000        1.6599040000
F                -0.4178480000        1.2689170000        1.2630580000
F                -0.7502110000        0.7039970000       -1.4156760000
F                -0.4109690000       -1.4005150000       -0.9786530000
O                 1.8313470000        1.1673850000       -1.0813150000
H                 3.0855950000       -0.4494260000       -0.2431390000


