%mem=28GB
%chk=1642764945472630600001_r12_insertion_R_8_3_4
%nprocshared=8
#P M062X/Def2TZVPP ! ASE formatted method and basis
Symm(None)
scf(xqc)
pop(None)
opt(NoFreeze,TS,CalcAll,NoEigentest,MaxCycle=999)

Gaussian input prepared by ASE

0 1
C                 1.6454670000       -0.1673860000       -0.1605220000
O                 2.5781990000       -0.9315790000       -0.2216010000
C                 0.2889910000       -0.4640290000       -0.0834550000
C                -0.7959050000        0.5959930000        1.5097060000
F                -1.9908450000        0.4580360000        1.2949100000
F                -0.3786950000       -0.2386120000        2.4661930000
F                -0.3223260000        1.7121000000        1.6589700000
F                -0.6290200000        0.9034180000       -0.3581750000
F                -0.3208440000       -1.2979750000       -0.6127890000
O                 1.9422420000        1.1440260000       -0.0008480000
H                 2.9122320000        1.2574080000        0.0197150000

1 2 F
1 3 F
1 10 F
3 4 F
3 8 F
3 9 F
4 5 F
4 6 F
4 7 F
10 11 F


