%mem=28GB
%chk=1642764945472630600001_well
%nprocshared=8
#P M062X/Def2TZVPP ! ASE formatted method and basis
Symm(None)
scf(xqc)
pop(None)
freq
opt(CalcFC)

Gaussian input prepared by ASE

0 1
C                 1.1353099028        0.2818424042       -0.0493205936
O                 1.9503121005        0.6694059017       -0.9430034254
C                -0.2715469349        0.7417615600       -0.0160842682
C                -1.2251712619       -0.4174082193       -0.1328555692
F                -2.5184321812        0.0736912858       -0.0958401350
F                -0.9521738478       -1.1142943285       -1.2946502587
F                -1.0255963511       -1.3060896861        0.9091609773
F                -0.5939033305        1.4017341864        1.1583493640
F                -0.4631597036        1.5814264138       -1.1049125890
O                 1.6363908247       -0.6045589216        0.9050110559
H                 2.3279707831       -1.3075105963        0.6641454419


