%mem=28GB
%chk=1642764945472630600001_r12_insertion_R_5_4_6_IRC_R_prod
%nprocshared=8
#P M062X/Def2TZVPP ! ASE formatted method and basis
Symm(None)
scf(xqc)
pop(None)
freq
opt(CalcFC)

Gaussian input prepared by ASE

0 1
C                 1.3248590000       -0.5174470000       -0.7855010000
O                 1.5889300000       -1.1765560000       -1.7331910000
C                -0.1919780000       -0.1979230000       -0.5326650000
C                -0.6223620000        0.4216250000        0.8644770000
F                -1.4281950000       -0.3927150000        1.5115390000
F                 0.4320410000        0.6365780000        1.6847890000
F                -1.2064040000        1.5910630000        0.6996900000
F                -0.5745080000        0.6548020000       -1.4962020000
F                -0.8785450000       -1.3290790000       -0.7085460000
O                 2.2512440000       -0.0104530000        0.0158860000
H                 1.8910230000        0.4593280000        0.7726260000


