%mem=28GB
%chk=1642764945472630600001_r12_insertion_R_1_3_8
%nprocshared=8
#P M062X/Def2TZVPP ! ASE formatted method and basis
Symm(None)
scf(xqc)
pop(None)
opt(NoFreeze,TS,CalcAll,NoEigentest,MaxCycle=999)

Gaussian input prepared by ASE

0 1
C                 1.5363490000       -0.0901080000       -0.1733000000
O                 2.0932800000       -0.8241850000       -0.9064760000
C                 0.0068820000       -0.4495880000        0.3927510000
C                -0.5894700000        0.3537890000        1.4378190000
F                -1.9232960000        0.2671940000        1.5257290000
F                -0.1575940000        0.0034510000        2.6584920000
F                -0.3413910000        1.6647000000        1.3465080000
F                 0.3843750000        1.0070180000       -1.2121780000
F                -0.6258220000       -1.3118510000       -0.2286980000
O                 2.0126840000        0.8662340000        0.6046830000
H                 2.5334980000        1.4847500000        0.0667630000

1 2 F
1 3 F
1 10 F
3 4 F
3 8 F
3 9 F
4 5 F
4 6 F
4 7 F
10 11 F


