%mem=28GB
%chk=1642764945472630600001_r12_insertion_R_10_1_2_IRC_R_prod
%nprocshared=8
#P M062X/Def2TZVPP ! ASE formatted method and basis
Symm(None)
scf(xqc)
pop(None)
freq
opt(CalcFC)

Gaussian input prepared by ASE

0 1
C                 1.4011300000       -0.2778860000       -0.6792390000
O                 2.1688580000       -0.0713600000        0.1969020000
C                -0.1368790000       -0.0338070000       -0.5132740000
C                -0.6951900000        0.0169790000        0.9295600000
F                -1.8574050000        0.6633470000        0.9258990000
F                -0.8973310000       -1.2070590000        1.3989840000
F                 0.1397550000        0.6615590000        1.7179550000
F                -0.1517530000        1.2303050000       -1.0030670000
F                -0.9936140000       -0.7477240000       -1.2617290000
O                 1.7956100000       -0.4216800000       -1.9499420000
H                 1.1910430000        0.0141390000       -2.5637030000


