%mem=28GB
%chk=1642764945472630600001_r12_insertion_R_8_3_1_IRC_F_prod
%nprocshared=8
#P M062X/Def2TZVPP ! ASE formatted method and basis
Symm(None)
scf(xqc)
pop(None)
freq
opt(CalcFC)

Gaussian input prepared by ASE

0 1
C                 1.5259020000       -0.3808800000       -0.7603270000
O                 1.8534450000       -1.0919180000       -1.6475260000
C                -0.0028320000       -0.3648700000       -0.3228030000
C                -0.7739380000        0.3006100000        0.8865880000
F                -1.9704470000        0.6016830000        0.4017940000
F                -0.9752260000       -0.4165120000        1.9790690000
F                -0.1495660000        1.4297650000        1.2380910000
F                -0.3223610000        0.5046220000       -1.3240770000
F                -0.6036630000       -1.5390130000       -0.4972050000
O                 2.2474110000        0.6618790000       -0.3603690000
H                 1.8011310000        1.1814110000        0.3193150000


