%mem=28GB
%chk=1642764945472630600001_r12_insertion_R_4_3_1
%nprocshared=8
#P M062X/Def2TZVPP ! ASE formatted method and basis
Symm(None)
scf(xqc)
pop(None)
opt(NoFreeze,TS,CalcAll,NoEigentest,MaxCycle=999)

Gaussian input prepared by ASE

0 1
C                 1.4675670000        0.1239590000        0.6018600000
O                 2.2701030000       -0.4993380000        1.2003820000
C                -0.5191270000        0.0129520000       -0.3366100000
C                -0.2939940000        0.2810620000        1.2962740000
F                -1.5609490000        0.4222100000        1.5557650000
F                -0.0485940000       -0.7486850000        2.0548190000
F                 0.1175450000        1.4099350000        1.7775910000
F                -0.5689870000        0.9086360000       -1.1133960000
F                -0.5111920000       -1.0745650000       -0.8023680000
O                 1.8087860000        0.9987500000       -0.3235510000
H                 2.7683400000        1.1364850000       -0.3986670000

1 2 F
1 3 F
1 10 F
3 4 F
3 8 F
3 9 F
4 5 F
4 6 F
4 7 F
10 11 F


