%mem=28GB
%chk=1642764945472630600001_r12_insertion_R_2_1_10_IRC_R_prod
%nprocshared=8
#P M062X/Def2TZVPP ! ASE formatted method and basis
Symm(None)
scf(xqc)
pop(None)
freq
opt(CalcFC)

Gaussian input prepared by ASE

0 1
C                 1.3597800000       -0.3200950000       -0.6138770000
O                 1.9685280000       -1.3253230000       -0.7820260000
C                -0.1805970000       -0.2352760000       -0.5805800000
C                -0.6655120000        0.2980000000        0.7910030000
F                -1.9298770000       -0.0243310000        1.0042430000
F                 0.0825880000       -0.2525900000        1.7476060000
F                -0.5421590000        1.6127940000        0.8546510000
F                -0.6074160000        0.5889770000       -1.5503070000
F                -0.7067590000       -1.4417770000       -0.7769590000
O                 1.8669530000        0.8923960000       -0.4086560000
H                 2.8318470000        0.8308030000       -0.4140270000


