%mem=28GB
%chk=1642764945472630600001_r13_insertion_ROR_4_3_1_10_IRC_F
%nprocshared=8
#P M062X/Def2TZVPP ! ASE formatted method and basis
Symm(None)
scf(xqc)
pop(None)
geom(AllCheck,NoKeepConstants)
guess(Read)
irc(RCFC,forward,MaxPoints=100,StepSize=2)

Gaussian input prepared by ASE

0 1
C                 2.1707480000        1.1581760000       -0.0549480000
O                 2.5619370000        2.0558380000       -0.7402800000
C                 2.1058010000       -0.2283410000       -0.1605500000
C                -0.1801870000        0.6201730000        0.0348770000
F                -0.4093140000       -0.5790130000        0.4405110000
F                -1.0746450000        1.4191060000        0.5797080000
F                -0.2068870000        0.8229150000       -1.2445020000
F                 2.8212730000       -0.8270920000       -1.1045960000
F                 2.0229120000       -0.9923200000        0.9327450000
O                 1.1665010000        1.4978500000        0.9997500000
H                 1.0338740000        2.4571180000        0.9379940000


