%mem=28GB
%chk=1642764945472630600001_r12_insertion_R_1_3_8_IRC_F
%nprocshared=8
#P M062X/Def2TZVPP ! ASE formatted method and basis
Symm(None)
scf(xqc)
pop(None)
geom(AllCheck,NoKeepConstants)
guess(Read)
irc(RCFC,forward,MaxPoints=100,StepSize=2)

Gaussian input prepared by ASE

0 1
C                 1.3495570000        0.1492310000       -0.3676950000
O                 1.9951990000       -0.8515910000       -0.6785980000
C                -0.0064930000       -0.2054560000        0.2556300000
C                -0.6501030000        0.3892530000        1.5319830000
F                -1.8519670000       -0.1246530000        1.7278790000
F                 0.1344760000        0.0711060000        2.5460370000
F                -0.7420190000        1.6920370000        1.4061860000
F                 0.6193130000        0.8575270000       -1.4640320000
F                -0.6621230000       -1.1395480000       -0.2485000000
O                 1.9004540000        1.1648250000        0.3804900000
H                 2.8432030000        0.9686740000        0.4227130000


