%mem=28GB
%chk=1642764945472630600001_R_Addition_MultipleBond_1_10_11
%nprocshared=8
#P mp2/6-31G ! ASE formatted method and basis
Symm(None)
scf(xqc)
pop(None)
guess(Mix,Always)
opt(NoFreeze,TS,CalcAll,NoEigentest,MaxCycle=999)

Gaussian input prepared by ASE

0 1
C                 1.4997838660        0.0298078527       -0.0210516337
O                 2.1720486785       -0.9446937227       -0.1180665266
C                -0.0440505101       -0.0003040633       -0.0003498168
C                -0.6304365482        0.3991250260        1.3713158719
F                -1.9315108025        0.1597308855        1.3992135290
F                -0.0314233638       -0.3201030303        2.3141647363
F                -0.4188047587        1.6858030031        1.6064535716
F                -0.5260016772        0.8447146714       -0.9241564189
F                -0.4471608401       -1.2418169127       -0.2698316755
O                 1.9641701955        1.2693465918        0.0982871060
H                 3.2620359933        0.7870627308        0.0572140651

1 2 F
1 3 F
1 10 F
3 4 F
3 8 F
3 9 F
4 5 F
4 6 F
4 7 F
10 11 F
1 10 11 F


