%mem=28GB
%chk=1642764945472630600001_r12_insertion_R_2_1_10_IRC_F_prod
%nprocshared=8
#P M062X/Def2TZVPP ! ASE formatted method and basis
Symm(None)
scf(xqc)
pop(None)
freq
opt(CalcFC)

Gaussian input prepared by ASE

0 1
C                 1.3593150000       -0.3193770000       -0.6144850000
O                 1.9681690000       -1.3257580000       -0.7744310000
C                -0.1809960000       -0.2349700000       -0.5807320000
C                -0.6649760000        0.2973320000        0.7915310000
F                -1.9294720000       -0.0242950000        1.0049530000
F                 0.0832150000       -0.2545250000        1.7472880000
F                -0.5405770000        1.6120040000        0.8562730000
F                -0.6092930000        0.5895150000       -1.5495220000
F                -0.7065900000       -1.4416950000       -0.7771370000
O                 1.8664230000        0.8948530000       -0.4186400000
H                 2.8314090000        0.8327800000       -0.4230070000


