%mem=28GB
%chk=1642764945472630600001_r12_insertion_R_4_3_8_IRC_F_prod
%nprocshared=8
#P M062X/Def2TZVPP ! ASE formatted method and basis
Symm(None)
scf(xqc)
pop(None)
freq
opt(CalcFC)

Gaussian input prepared by ASE

0 1
C                 1.3996440000       -0.2004820000       -0.6428130000
O                 2.0291110000       -1.0892650000       -1.1153740000
C                -0.1439360000       -0.2238620000       -0.5606740000
C                -0.6985440000        0.2558230000        0.7921300000
F                -2.0106730000        0.0816910000        0.8272540000
F                -0.1314670000       -0.4829580000        1.7432160000
F                -0.4416560000        1.5328990000        1.0181180000
F                -0.6582460000        0.5422420000       -1.5366400000
F                -0.5589570000       -1.4797640000       -0.7267250000
O                 1.8879910000        0.9277660000       -0.1358850000
H                 2.8511420000        0.9102360000       -0.2251850000


