%mem=28GB
%chk=1642764945472630600001_r13_insertion_CO2_3_11_IRC_F_prod
%nprocshared=8
#P M062X/Def2TZVPP ! ASE formatted method and basis
Symm(None)
scf(xqc)
pop(None)
freq
opt(CalcFC)

Gaussian input prepared by ASE

0 1
C                 2.1167280000       -0.1661360000       -0.6646320000
O                 2.0854200000       -1.2983020000       -0.8517840000
C                -0.3256810000        0.2273510000       -0.5620690000
C                -0.8183360000       -0.0090850000        0.8444720000
F                -2.1166630000       -0.2239970000        0.8342640000
F                -0.2036630000       -1.0564540000        1.3956900000
F                -0.5513510000        1.0655180000        1.5821990000
F                -0.9118770000        1.2884960000       -1.1147940000
F                -0.5438390000       -0.8603560000       -1.3089820000
O                 2.2833780000        0.9702780000       -0.4797710000
H                 0.6573450000        0.5661300000       -0.4882660000


