%mem=28GB
%chk=1642764945472630600001_r13_insertion_ROR_8_3_1_2_IRC_F_prod
%nprocshared=8
#P M062X/Def2TZVPP ! ASE formatted method and basis
Symm(None)
scf(xqc)
pop(None)
freq
opt(CalcFC)

Gaussian input prepared by ASE

0 1
C                 0.4767290000        1.0138290000       -0.7253100000
O                 0.4533000000        1.8006550000        0.3743230000
C                 0.2252750000       -0.2888690000       -0.6232520000
C                -0.1315020000       -1.0546850000        0.6244860000
F                 0.5316720000       -2.2106220000        0.6347220000
F                 0.1582750000       -0.3985410000        1.7369120000
F                -1.4351030000       -1.3425090000        0.6400340000
F                -0.9081930000        2.2135460000        0.5242390000
F                 0.2215830000       -1.0511940000       -1.7062480000
O                 0.7626090000        1.5992390000       -1.8939590000
H                 0.8815580000        2.5444820000       -1.7495560000


