%mem=28GB
%chk=1642764945472630600001_r12_insertion_R_5_4_7
%nprocshared=8
#P M062X/Def2TZVPP ! ASE formatted method and basis
Symm(None)
scf(xqc)
pop(None)
opt(NoFreeze,TS,CalcAll,NoEigentest,MaxCycle=999)

Gaussian input prepared by ASE

0 1
C                 1.4712120000        0.1243520000        0.1319160000
O                 2.3234710000       -0.5513670000        0.6033330000
C                -0.0247640000       -0.3185070000       -0.0637630000
C                -0.6656360000       -0.1085980000        1.1423860000
F                -1.1380840000        1.4679070000        1.4258010000
F                -1.1228240000       -0.7672820000        2.0054880000
F                 0.5582890000        1.3300270000        2.2703760000
F                -0.5850120000        0.3471980000       -1.1089880000
F                -0.0622100000       -1.5983650000       -0.5075160000
O                 1.6568810000        1.3518050000       -0.3353230000
H                 2.5181740000        1.6942350000       -0.0516080000

1 2 F
1 3 F
1 10 F
3 4 F
3 8 F
3 9 F
4 5 F
4 6 F
4 7 F
10 11 F


