%mem=28GB
%chk=1642804443153132880001_well
%nprocshared=8
#P M062X/Def2TZVPP ! ASE formatted method and basis
Symm(None)
scf(xqc)
pop(None)
freq
opt(CalcFC)

Gaussian input prepared by ASE

0 1
C                 1.0068710000        0.3512550000       -0.0167990000
O                -0.0464820000        0.6251340000        0.8366270000
C                 1.4978140000       -0.8751110000       -0.0608550000
C                -1.2753470000        0.5920750000        0.2661190000
F                -1.6213470000       -0.6311310000       -0.1136990000
F                -2.1486110000        1.0350310000        1.1415400000
F                -1.3262470000        1.3700470000       -0.8264760000
F                 2.5253370000       -1.2199610000       -0.7928550000
F                 1.0374140000       -1.8757220000        0.6461510000
O                 1.5775260000        1.3892370000       -0.6538680000
H                 0.9635100000        1.7658380000       -1.2949160000


