%mem=28GB
%chk=1642764945472630600001_r12_insertion_R_10_1_2_IRC_F_prod
%nprocshared=8
#P M062X/Def2TZVPP ! ASE formatted method and basis
Symm(None)
scf(xqc)
pop(None)
freq
opt(CalcFC)

Gaussian input prepared by ASE

0 1
C                 1.1768110000       -0.8609780000       -0.5065620000
O                 2.2010130000        0.1041120000       -0.2764370000
C                -0.1567230000       -0.0893720000       -0.4983010000
C                -0.7247060000        0.0138320000        0.9279690000
F                -1.8655970000        0.6885310000        0.9217610000
F                -0.9438010000       -1.1921620000        1.4252440000
F                 0.1446470000        0.6509390000        1.7071810000
F                -0.0662420000        1.1915310000       -0.9826920000
F                -1.0426620000       -0.7298690000       -1.2722240000
O                 1.9654810000       -0.1656090000       -1.6789160000
H                 1.4983310000        0.6531840000       -1.9490150000


