%mem=28GB
%chk=1642764945472630600001_r13_insertion_ROR_8_3_1_10_IRC_R_prod
%nprocshared=8
#P M062X/Def2TZVPP ! ASE formatted method and basis
Symm(None)
scf(xqc)
pop(None)
opt(CalcAll,Cartesian)

Gaussian input prepared by ASE

0 1
C                 2.0131060000        2.6128140000       -2.8284380000
O                 1.3440650000        2.5312300000       -1.9319720000
C                -0.3342300000       -0.0030370000        0.0028960000
C                -0.6800130000       -1.0450840000        1.0886280000
F                -1.2034150000       -2.1217750000        0.5178830000
F                 0.4083980000       -1.4031710000        1.7549340000
F                -1.5611530000       -0.5420320000        1.9397960000
F                -1.4612120000        0.3045100000       -0.6636380000
F                 0.4925820000       -0.5814880000       -0.8948530000
O                 0.2189350000        1.0720410000        0.5810660000
H                 0.3682710000        1.7293400000       -0.1107740000


