%mem=28GB
%chk=1642764945472630600001_r13_insertion_ROR_8_3_1_10
%nprocshared=8
#P M062X/Def2TZVPP ! ASE formatted method and basis
Symm(None)
scf(xqc)
pop(None)
opt(NoFreeze,TS,CalcAll,NoEigentest,MaxCycle=999)

Gaussian input prepared by ASE

0 1
C                 2.3359040000        1.2614970000       -0.1243250000
O                 3.2045090000        2.0190860000       -0.3196960000
C                 1.8017030000       -0.0848750000       -0.0579860000
C                 1.9323410000       -0.7844490000        1.2347790000
F                 1.0839560000       -1.8130560000        1.3710240000
F                 3.1489270000       -1.3244790000        1.4237560000
F                 1.7345990000       -0.0127540000        2.3059490000
F                -0.1222700000        0.4376790000        0.1009610000
F                 1.6853520000       -0.7556550000       -1.1152260000
O                 0.6722960000        2.2522820000        0.3764210000
H                 1.0515900000        3.1382980000        0.4886330000

1 2 F
1 3 F
1 10 F
3 4 F
3 8 F
3 9 F
4 5 F
4 6 F
4 7 F
10 11 F


