%mem=28GB
%chk=1642764945472630600001_r12_insertion_R_3_4_5_IRC_F
%nprocshared=8
#P M062X/Def2TZVPP ! ASE formatted method and basis
Symm(None)
scf(xqc)
pop(None)
geom(AllCheck,NoKeepConstants)
guess(Read)
irc(RCFC,forward,MaxPoints=100,StepSize=2)

Gaussian input prepared by ASE

0 1
C                 1.4149510000        0.3626360000       -0.0560430000
O                 1.6110250000        0.2814310000        1.1885790000
C                -0.3138950000        0.2640230000        0.0333030000
C                 0.0347460000        0.1727430000        1.5255150000
F                -1.9245560000        0.1144390000        0.9005340000
F                -0.0750810000       -0.9616680000        2.1283780000
F                -0.1895320000        1.1889890000        2.2866400000
F                -0.6908460000        1.4080660000       -0.5012780000
F                -0.5720860000       -0.8230550000       -0.6654750000
O                 2.3847020000        0.4753480000       -0.8872300000
H                 3.2500660000        0.4884610000       -0.4408220000


