%mem=28GB
%chk=1642764945472630600001_R_Addition_MultipleBond_1_3_4_IRC_R
%nprocshared=8
#P mp2/6-31G ! ASE formatted method and basis
Symm(None)
scf(xqc)
pop(None)
guess(Read,Mix)
geom(AllCheck,NoKeepConstants)
irc(RCFC,reverse,MaxPoints=100,StepSize=2)

Gaussian input prepared by ASE

0 1
C                 1.7308990000        0.1139140000       -0.2391770000
O                 2.6398550000       -0.6794180000        0.0798330000
C                 0.2919210000       -0.2262990000       -0.1877060000
C                -0.2888400000        0.4829880000        2.2434210000
F                -1.0990150000        1.3834660000        1.5573280000
F                -0.6784570000       -0.8519270000        2.3096430000
F                 1.0734960000        0.7770950000        2.3679560000
F                -0.6282400000        0.5245920000       -0.8691260000
F                -0.0480260000       -1.5513600000       -0.1212190000
O                 1.8966880000        1.4478030000       -0.5700050000
H                 2.8465050000        1.7027890000       -0.5098220000


