%mem=28GB
%chk=1643085676164723230601_well
%nprocshared=8
#P M062X/Def2TZVPP ! ASE formatted method and basis
Symm(None)
scf(xqc)
pop(None)
freq
opt(CalcFC)

Gaussian input prepared by ASE

0 1
C                 1.1968620000       -0.8420330000       -0.4836830000
O                 2.2105940000        0.1416860000       -0.2960100000
C                -0.1475540000       -0.0901030000       -0.4882490000
C                -0.7306310000        0.0106940000        0.9321890000
F                -1.8483810000        0.7232240000        0.9210980000
F                -0.9965730000       -1.1939100000        1.4086940000
F                 0.1489440000        0.6075100000        1.7319770000
F                -0.0715090000        1.1886890000       -0.9789300000
F                -1.0166260000       -0.7482680000       -1.2673170000
O                 1.9609120000       -0.1693030000       -1.6876480000
H                 1.4805130000        0.6359530000       -1.9741110000


