%mem=28GB
%chk=1643046107386123120601_well
%nprocshared=8
#P M062X/Def2TZVPP ! ASE formatted method and basis
Symm(None)
scf(xqc)
pop(None)
freq
opt(CalcFC)

Gaussian input prepared by ASE

0 1
C                 1.0888340000        0.1617350000       -0.8603000000
O                 0.9032440000       -1.1436430000       -0.3979150000
C                -0.1941310000       -0.2842160000       -0.3457790000
C                -0.7635520000        0.0190770000        1.0339470000
F                -1.5047740000       -1.0053330000        1.4440050000
F                 0.1985270000        0.2238210000        1.9173860000
F                -1.5347270000        1.0997500000        0.9770280000
F                 1.2386440000        0.2274780000       -2.1879660000
F                -1.1832720000       -0.5532400000       -1.1999280000
O                 1.9051710000        0.9940070000       -0.2019760000
H                 2.8212950000        0.8125320000       -0.4456410000


