%chk=gaussian_jobs/C2F2O2.chk
%mem=800MB
%nprocshared=8
# opt=(maxcyc=999,noeigen) M062X/6-31G(2df,p) NOSYM int=ultrafine scf=(tight,xqc)

C2F2O2 - M062X/6-31G(2df,p) Geometry Optimization

0 1
C      -0.753842     -0.051302     -0.007408
O      -1.339361     -1.111091     -0.153470
C       0.753843      0.051302      0.007407
O       1.339361      1.111092      0.153466
F       1.483061     -1.062604     -0.145484
F      -1.483061      1.062603      0.145489

1 2 1.0 3 1.0 6 1.0
2
3 4 1.0 5 1.0
4
5
6

