%chk=gaussian_jobs/C2F5COOH.chk
%mem=10GB
%nprocshared=8
#P iop(7/33=1) opt=calcfc freq M062X/6-31G(2df,p) scf=tight nosym scfcyc=6000

C2F5COOH - optimisation + frequencies (final coordinates)

0 1
C       1.122144      0.132935     -0.027627
O       1.792430      0.073480     -1.048993
C      -0.277238      0.686605      0.103028
C      -1.212734     -0.423936     -0.333095
F      -2.513183     -0.043297     -0.244333
F      -1.008201     -0.803628     -1.617720
F      -1.082254     -1.537063      0.431043
F      -0.566829      1.082601      1.381222
F      -0.458539      1.800300     -0.670745
O       1.648693     -0.334833      1.128598
H       2.555711     -0.633163      0.898622

1 2 1.0 3 1.0 10 1.0
2
3 4 1.0 8 1.0 9 1.0
4 5 1.0 6 1.0 7 1.0
5
6
7
8
9
10 11 1.0
11

