%chk=gaussian_jobs/FCOOH.chk
%mem=10GB
%nprocshared=8
#P iop(7/33=1) opt=calcfc freq M062X/6-31G(2df,p) scf=tight nosym scfcyc=6000

FCOOH - optimisation + frequencies (final coordinates)

0 1
C      -0.361436      0.023131      0.009795
O      -0.396461      1.240656     -0.039635
O       0.797401     -0.658242      0.003563
F      -1.508479     -0.656134      0.072082
H       1.468975      0.050589     -0.045805

1 2 1.0 3 1.0 4 1.0
2
3 5 1.0
4
5

