%mem=28GB
%chk=1843365746072630600001_well
%nprocshared=8
#P M062X/Def2TZVPP ! ASE formatted method and basis
Symm(None)
scf(xqc)
pop(None)
freq
opt(CalcFC, Tight)

Gaussian input prepared by ASE

0 1
C                -0.6177770000       -1.3316220000        0.1958830000
C                 0.0736150000        0.0479510000        0.1031920000
F                -0.2141830000        0.5887330000       -1.0872930000
F                -0.3966270000        0.8331280000        1.0681980000
S                 1.9090330000       -0.0307800000        0.2538730000
O                 2.3744440000       -0.8667950000       -0.7941720000
O                 2.2355870000        1.4678850000       -0.0891010000
F                -0.3014490000       -2.0794050000       -0.8461600000
F                -0.2532640000       -1.9488880000        1.3079480000
F                -1.9303380000       -1.1481140000        0.2116720000
H                 2.3458860000        1.5775250000       -1.0447960000


