%mem=28GB
%chk=2003846667223680600001_r12_insertion_R_1_2_5
%nprocshared=8
#P M062X/Def2TZVPP ! ASE formatted method and basis
Symm(None)
scf(xqc)
pop(None)
opt(NoFreeze,TS,CalcAll,NoEigentest,MaxCycle=999)

Gaussian input prepared by ASE

0 1
C                -0.1011090000       -1.0799260000        0.2640940000
C                -0.3438270000        0.5549650000        0.0251830000
F                -1.0255810000        0.7303640000       -0.9550840000
F                -0.7335970000        1.1215780000        1.0000660000
S                 1.6526390000       -0.3651310000        0.1097840000
O                 2.0337500000       -0.4344510000        1.4114030000
O                 2.0965260000       -1.1509010000       -0.9033230000
O                 2.0724030000        1.0582020000       -0.3461550000
F                 0.0289820000       -1.8259270000       -0.7972510000
F                 0.2451630000       -1.8048090000        1.2797230000
F                -1.4409830000       -1.2815960000        0.4238340000
H                 2.9635710000        1.3572230000       -0.6180870000

1 2 F
1 9 F
1 10 F
1 11 F
2 3 F
2 4 F
2 5 F
5 6 F
5 7 F
5 8 F
8 12 F


