%mem=28GB
%chk=2003846667223680600001_r12_insertion_R_9_1_10_IRC_R_prod
%nprocshared=8
#P M062X/Def2TZVPP ! ASE formatted method and basis
Symm(None)
scf(xqc)
pop(None)
freq
opt(CalcFC)

Gaussian input prepared by ASE

0 1
C                -0.9763630000       -0.9152420000        0.2135820000
C                -0.5757700000        0.5581800000        0.3774970000
F                -1.2368870000        1.4568460000       -0.3338370000
F                -0.6538640000        0.8737690000        1.6608490000
S                 1.1927530000        0.3605120000       -0.3835860000
O                 2.2561210000        0.4068940000        0.5576990000
O                 1.0287860000       -0.6851090000       -1.3262080000
O                 1.2162930000        1.6875010000       -1.2162760000
F                -1.8452880000       -1.5956000000        0.9048050000
F                 0.2217610000       -1.3907260000        0.8096970000
F                -1.4010430000       -1.0339390000       -1.0537120000
H                 1.8630590000        2.2998730000       -0.8405300000


