%mem=28GB
%chk=2003846667223680600001_r12_insertion_R_12_8_5_IRC_R
%nprocshared=8
#P M062X/Def2TZVPP ! ASE formatted method and basis
Symm(None)
scf(xqc)
pop(None)
geom(AllCheck,NoKeepConstants)
guess(Read)
irc(RCFC,reverse,MaxPoints=100,StepSize=2)

Gaussian input prepared by ASE

0 1
C                -0.5940030000       -1.3268320000        0.2632390000
C                -0.0012740000        0.0970350000        0.1386360000
F                -0.3639210000        0.6207640000       -1.0283490000
F                -0.4623270000        0.8517310000        1.1329720000
S                 1.8401530000        0.1303820000        0.2252410000
O                 2.2218610000       -0.5827400000        1.3823170000
O                 2.3473410000       -0.2744550000       -1.1243550000
O                 2.2008440000        1.5750720000        0.0596280000
F                 0.0157990000       -2.1389540000       -0.5882560000
F                -0.4463720000       -1.7852260000        1.4912050000
F                -1.8841460000       -1.2787640000       -0.0295660000
H                 2.5739860000        0.9915790000       -1.0285210000


