%mem=28GB
%chk=2003846667223680600001_r13_insertion_ROR_3_2_5_6
%nprocshared=8
#P M062X/Def2TZVPP ! ASE formatted method and basis
Symm(None)
scf(xqc)
pop(None)
opt(NoFreeze,TS,CalcAll,NoEigentest,MaxCycle=999)

Gaussian input prepared by ASE

0 1
C                 1.8936270000       -0.9957570000       -1.1815780000
C                 1.9578610000        0.0742210000       -0.0170170000
F                -0.0261740000        0.3053880000        0.0838060000
F                 1.9904750000       -0.5638730000        1.1814710000
S                 2.1352030000        1.5101160000       -0.1132740000
O                 0.3598360000        2.2315680000        0.4590730000
O                 3.2456750000        2.1402490000        0.4937720000
O                 2.2024440000        1.8761870000       -1.6428130000
F                 1.2966610000       -0.5479410000       -2.2676440000
F                 3.0888990000       -1.3945650000       -1.5518830000
F                 1.2384700000       -2.0731560000       -0.8005660000
H                 2.6271040000        2.7067900000       -1.8973660000

1 2 F
1 9 F
1 10 F
1 11 F
2 3 F
2 4 F
2 5 F
5 6 F
5 7 F
5 8 F
8 12 F


