%mem=28GB
%chk=2003846667223680600001_r13_insertion_ROR_1_2_5_6_IRC_R_prod
%nprocshared=8
#P M062X/Def2TZVPP ! ASE formatted method and basis
Symm(None)
scf(xqc)
pop(None)
freq
opt(CalcFC)

Gaussian input prepared by ASE

0 1
C                -1.3811440000       -0.3829960000        0.4794080000
C                 0.2324830000       -0.7164770000       -0.4098880000
F                 1.0032560000       -1.7658180000       -0.0628220000
F                -0.0016460000       -0.8997570000       -1.7038800000
S                 1.0876670000        0.8382300000       -0.0397440000
O                -0.0174650000        1.6919650000        0.1543040000
O                 2.0747680000        0.5976200000        0.9501480000
O                 1.7485560000        1.3484750000       -1.3692190000
F                -1.9995510000        0.7608230000        0.8216560000
F                -2.2204080000       -0.9330240000       -0.3715920000
F                -1.2333690000       -1.0009640000        1.6369760000
H                 2.6891350000        1.1242610000       -1.4035760000


