%mem=28GB
%chk=2003846667223680600001_R_Addition_MultipleBond_5_8_12_IRC_R_prod
%nprocshared=8
#P mp2/6-31G ! ASE formatted method and basis
Symm(None)
scf(xqc)
pop(None)
guess(Mix,Always)
freq
opt(CalcFC)

Gaussian input prepared by ASE

0 1
C                -1.2136520000       -0.9730010000        0.1179670000
C                -0.6081560000        0.4364860000       -0.0342610000
F                -0.8917850000        0.9492900000       -1.2918870000
F                -1.0486040000        1.2827940000        0.9709370000
S                 1.4116350000        0.3964630000        0.0250390000
O                 1.8516950000       -0.3669910000        1.3502740000
O                 1.9970020000        0.0607330000       -1.4432360000
O                 1.8199640000        2.1415990000       -0.1332710000
F                -0.5122580000       -1.8582190000       -0.6994200000
F                -1.1160180000       -1.3952270000        1.4344590000
F                -2.5508990000       -0.9638930000       -0.2650620000
H                 2.3029740000        2.1065120000       -1.0097910000


