%mem=28GB
%chk=2003846667223680600001_r12_insertion_R_6_5_8
%nprocshared=8
#P M062X/Def2TZVPP ! ASE formatted method and basis
Symm(None)
scf(xqc)
pop(None)
opt(NoFreeze,TS,CalcAll,NoEigentest,MaxCycle=999)

Gaussian input prepared by ASE

0 1
C                -0.7142080000       -1.4102710000        0.1616790000
C                 0.0324830000       -0.0186190000        0.1056320000
F                -0.3965900000        0.6407830000       -0.9955400000
F                -0.4053700000        0.7445970000        1.1055540000
S                 1.7785500000       -0.1649790000        0.1350690000
O                 2.3213230000        0.5289800000        1.5537660000
O                 2.2219010000       -1.0793640000       -0.6816920000
O                 2.5322530000        1.4536910000       -0.0925720000
F                -0.6905680000       -2.0383220000       -0.9946900000
F                -0.1589630000       -2.2383830000        1.0451190000
F                -1.9663760000       -1.2903220000        0.5050940000
H                 2.8935000000        1.7518030000       -0.9532290000

1 2 F
1 9 F
1 10 F
1 11 F
2 3 F
2 4 F
2 5 F
5 6 F
5 7 F
5 8 F
8 12 F


