%mem=28GB
%chk=2003846667223680600001_r13_insertion_RSR_9_1_2_5
%nprocshared=8
#P M062X/Def2TZVPP ! ASE formatted method and basis
Symm(None)
scf(xqc)
pop(None)
opt(NoFreeze,TS,CalcAll,NoEigentest,MaxCycle=999)

Gaussian input prepared by ASE

0 1
C                 1.6678650000       -0.0091740000       -0.0607700000
C                 2.1801090000        1.3457780000        0.0040850000
F                 3.2162700000        1.4951250000        0.8193700000
F                 2.6034230000        1.8095120000       -1.1532700000
S                 0.6985820000        2.5034690000        0.6858670000
O                -0.1062230000        2.9351470000       -0.3653770000
O                 0.5182700000        2.1661090000        2.0265570000
O                 1.7071310000        3.6855760000        0.8240850000
F                -0.1472250000        0.7220500000        0.3524590000
F                 1.2934070000       -0.5809630000       -1.1288430000
F                 1.6724530000       -0.8201390000        0.9104850000
H                 2.3503250000        3.7846300000        1.5491980000

1 2 F
1 9 F
1 10 F
1 11 F
2 3 F
2 4 F
2 5 F
5 6 F
5 7 F
5 8 F
8 12 F


