%mem=28GB
%chk=2003846667223680600001_r12_insertion_R_6_5_7
%nprocshared=8
#P M062X/Def2TZVPP ! ASE formatted method and basis
Symm(None)
scf(xqc)
pop(None)
opt(NoFreeze,TS,CalcAll,NoEigentest,MaxCycle=999)

Gaussian input prepared by ASE

0 1
C                -0.6089550000       -1.2949430000        0.3158970000
C                -0.0199950000        0.0579550000       -0.1525610000
F                -0.5799870000        0.3547370000       -1.3794810000
F                -0.5269200000        1.0527520000        0.6342440000
S                 1.6554480000        0.1770470000       -0.3563760000
O                 2.2516410000       -0.5459330000        1.0259220000
O                 2.7794890000       -1.1907040000       -0.6816100000
O                 2.2532730000        1.4368740000       -0.2673340000
F                -0.6236820000       -2.2087520000       -0.6353380000
F                 0.0334940000       -1.8307170000        1.3378970000
F                -1.8638390000       -1.1823990000        0.7205770000
H                 2.6979770000        2.0536730000        0.3323610000

1 2 F
1 9 F
1 10 F
1 11 F
2 3 F
2 4 F
2 5 F
5 6 F
5 7 F
5 8 F
8 12 F


