%mem=28GB
%chk=2003846667223680600001_intra_H_migration_6_12_IRC_F
%nprocshared=8
#P M062X/Def2TZVPP ! ASE formatted method and basis
Symm(None)
scf(xqc)
pop(None)
geom(AllCheck,NoKeepConstants)
guess(Read)
irc(RCFC,forward,MaxPoints=100,StepSize=2)

Gaussian input prepared by ASE

0 1
C                 0.9879520000       -0.8046040000       -0.7603100000
C                 0.1747930000        0.4710280000       -0.4537710000
F                 1.0148100000        1.4840490000       -0.2476160000
F                -0.6147560000        0.7495920000       -1.4868610000
S                -0.8868990000        0.3740650000        1.0580450000
O                -2.1223390000       -0.4784900000        0.6352210000
O                -0.0734950000       -0.1472410000        2.0929920000
O                -1.5423080000        1.6451790000        1.1516610000
F                 1.9337940000       -0.9835070000        0.1408530000
F                 0.1766590000       -1.8550130000       -0.7632230000
F                 1.5438650000       -0.6826630000       -1.9556850000
H                -2.8125850000        0.1930520000        0.6073700000


