%mem=28GB
%chk=2003846667223680600001_r12_insertion_R_5_2_3_IRC_R_prod
%nprocshared=8
#P M062X/Def2TZVPP ! ASE formatted method and basis
Symm(None)
scf(xqc)
pop(None)
freq
opt(CalcFC)

Gaussian input prepared by ASE

0 1
C                -1.5144580000       -1.1623320000        0.1735040000
C                -0.5915740000       -0.3910140000        1.1550390000
F                 0.1182460000        0.9837080000       -0.7503930000
F                -1.2937900000        0.5846120000        1.6080350000
S                 1.6172380000        0.8124040000       -0.3098590000
O                 1.7271250000        1.4623330000        0.9363950000
O                 1.9582530000       -0.5232430000       -0.5601290000
O                 2.2604520000        1.6902540000       -1.4231680000
F                -0.8465870000       -1.5936680000       -0.8834680000
F                -1.9106140000       -2.2128970000        0.8982340000
F                -2.5863320000       -0.5001980000       -0.2481790000
H                 2.2970700000        2.6153050000       -1.1408740000


