%mem=28GB
%chk=2003846667223680600001_r12_insertion_R_1_2_3_IRC_F
%nprocshared=8
#P M062X/Def2TZVPP ! ASE formatted method and basis
Symm(None)
scf(xqc)
pop(None)
geom(AllCheck,NoKeepConstants)
guess(Read)
irc(RCFC,forward,MaxPoints=100,StepSize=2)

Gaussian input prepared by ASE

0 1
C                -0.5839640000       -0.9956100000       -0.1606510000
C                 0.3203650000       -0.2554550000        0.7193880000
F                -0.0959670000        0.9913970000       -1.5275400000
F                -0.2560430000        0.5966430000        1.4792740000
S                 2.1880610000       -0.1296160000        0.4679400000
O                 2.6441310000        0.0857450000        1.7955480000
O                 2.4637690000       -1.3688860000       -0.1770550000
O                 2.1399570000        1.0410810000       -0.3898150000
F                -0.1902850000       -1.7229390000       -1.1095200000
F                -0.1647480000       -1.7185770000        1.2223070000
F                -1.8370820000       -0.7978110000       -0.1287620000
H                 0.8197450000        1.1536230000       -1.2969210000


