%mem=28GB
%chk=2003846667223680600001_Intra_Diels_alder_R_6_7
%nprocshared=8
#P M062X/Def2TZVPP ! ASE formatted method and basis
Symm(None)
scf(xqc)
pop(None)
opt(NoFreeze,TS,CalcAll,NoEigentest,MaxCycle=999)

Gaussian input prepared by ASE

0 1
C                -0.6046660000       -1.2884140000        0.1277650000
C                 0.1496030000        0.0698910000        0.1001180000
F                -0.1660670000        0.7263780000       -1.0324640000
F                -0.3334360000        0.8732460000        1.0531180000
S                 1.9347260000       -0.0330770000        0.2490920000
O                 2.5735620000       -1.1748150000       -0.0910210000
O                 2.4733950000       -0.2838820000        1.4703270000
O                 2.2834750000        1.2593120000       -0.4778380000
F                -0.2792850000       -2.0669460000       -0.8848160000
F                -0.3782950000       -1.9811310000        1.2307230000
F                -1.9167450000       -1.1313820000        0.0596040000
H                 1.7116760000        1.9104100000       -0.9104100000



