%mem=28GB
%chk=2003846667223680600001_r13_insertion_ROR_1_2_5_6
%nprocshared=8
#P M062X/Def2TZVPP ! ASE formatted method and basis
Symm(None)
scf(xqc)
pop(None)
opt(NoFreeze,TS,CalcAll,NoEigentest,MaxCycle=999)

Gaussian input prepared by ASE

0 1
C                -0.1252750000        0.2776500000        0.3511900000
C                 1.7141600000       -0.0134490000       -0.3780160000
F                 2.0762120000       -1.0917390000        0.3343350000
F                 1.3219510000       -0.5341780000       -1.5344400000
S                 2.3534020000        1.2843730000       -0.2803850000
O                 0.5196910000        2.0809060000       -0.2252440000
O                 3.2726820000        1.5499920000        0.6971860000
O                 3.0258610000        1.7426680000       -1.5838620000
F                -0.1847870000        0.9201900000        1.4208730000
F                -0.9245910000        0.5280540000       -0.5788000000
F                -0.2418640000       -0.9529430000        0.6443050000
H                 3.9510480000        2.0326540000       -1.6097380000

1 2 F
1 9 F
1 10 F
1 11 F
2 3 F
2 4 F
2 5 F
5 6 F
5 7 F
5 8 F
8 12 F


