%mem=28GB
%chk=2003846667223680600001_Intra_Diels_alder_R_6_7_IRC_F
%nprocshared=8
#P M062X/Def2TZVPP ! ASE formatted method and basis
Symm(None)
scf(xqc)
pop(None)
geom(AllCheck,NoKeepConstants)
guess(Read)
irc(RCFC,forward,MaxPoints=100,StepSize=2)

Gaussian input prepared by ASE

0 1
C                -0.5942620000       -1.3102220000        0.1650350000
C                 0.1460600000        0.0400230000        0.0276290000
F                -0.0877260000        0.5411210000       -1.1952090000
F                -0.3275670000        0.8970740000        0.9324240000
S                 1.9755120000       -0.1027230000        0.2602070000
O                 2.4288180000       -1.1496910000       -0.5773230000
O                 2.2284060000       -0.0858880000        1.6515570000
O                 2.4284040000        1.2705910000       -0.3658200000
F                -0.3244630000       -2.0922560000       -0.8620150000
F                -0.2316250000       -1.9077340000        1.2880370000
F                -1.8984560000       -1.0756820000        0.1983810000
H                 1.7048440000        1.8549760000       -0.6287050000


