%mem=28GB
%chk=2003846667223680600001_r12_insertion_R_6_5_7_IRC_F
%nprocshared=8
#P M062X/Def2TZVPP ! ASE formatted method and basis
Symm(None)
scf(xqc)
pop(None)
geom(AllCheck,NoKeepConstants)
guess(Read)
irc(RCFC,forward,MaxPoints=100,StepSize=2)

Gaussian input prepared by ASE

0 1
C                -0.6668380000       -1.0085620000        0.6105890000
C                -0.1405750000       -0.0129160000       -0.4334060000
F                -0.5724570000       -0.3814550000       -1.6437780000
F                -0.6395150000        1.1968010000       -0.1497810000
S                 1.8447600000        0.3423820000       -0.6828710000
O                 2.0038530000       -1.1653180000       -0.5624520000
O                 3.3573700000       -0.0279920000       -0.9087450000
O                 1.9296960000        0.9798890000        0.7782680000
F                -0.3343050000       -2.2482630000        0.2838400000
F                -0.1698320000       -0.7295650000        1.8086770000
F                -1.9939060000       -0.9355070000        0.6780340000
H                 2.8296920000        0.8700960000        1.1158220000


