%mem=28GB
%chk=2003846667223680600001_r12_insertion_R_8_5_2
%nprocshared=8
#P M062X/Def2TZVPP ! ASE formatted method and basis
Symm(None)
scf(xqc)
pop(None)
opt(NoFreeze,TS,CalcAll,NoEigentest,MaxCycle=999)

Gaussian input prepared by ASE

0 1
C                -0.6088640000       -1.2561410000        0.1911640000
C                 0.2291560000        0.0177690000       -0.1285550000
F                 0.0878140000        0.2636960000       -1.4422190000
F                -0.3692990000        1.0490560000        0.4771250000
S                 1.9398770000       -0.2262060000        0.3753410000
O                 2.1707980000       -0.1297080000        1.7321800000
O                 2.6915220000       -1.0314790000       -0.4703840000
O                 1.6469570000        1.2701220000       -0.3059080000
F                -1.1601980000       -1.8035180000       -0.8758150000
F                 0.1163520000       -2.2117210000        0.7446770000
F                -1.6004810000       -1.0310880000        1.0385430000
H                 2.3043090000        1.9688100000       -0.4419520000

1 2 F
1 9 F
1 10 F
1 11 F
2 3 F
2 4 F
2 5 F
5 6 F
5 7 F
5 8 F
8 12 F


