%mem=28GB
%chk=2003846667223680600001_r12_insertion_R_3_2_1_IRC_R_prod
%nprocshared=8
#P M062X/Def2TZVPP ! ASE formatted method and basis
Symm(None)
scf(xqc)
pop(None)
opt(CalcAll,Cartesian,Cartesian)

Gaussian input prepared by ASE

0 1
C                -1.5193400000       -1.1658430000       -0.7935160000
C                 0.3448350000        0.9223900000        1.7236130000
F                -1.2379360000        0.1249350000       -0.6089460000
F                -0.2253650000        2.0260730000        1.4222040000
S                 1.6806390000        0.6536150000        0.4739520000
O                 2.8373900000        1.0848290000        1.1767190000
O                 1.5381490000       -0.6647030000       -0.0469720000
O                 1.4369290000        1.6877820000       -0.7009180000
F                -0.7895000000       -1.6227250000       -1.7825030000
F                -1.2636950000       -1.8238750000        0.3078600000
F                -2.7940110000       -1.2749010000       -1.0949720000
H                 0.9591010000        1.2530130000       -1.4212600000


