%mem=28GB
%chk=2003846667223680600001_intra_H_migration_suprafacial_6_12_IRC_R_prod
%nprocshared=8
#P M062X/Def2TZVPP ! ASE formatted method and basis
Symm(None)
scf(xqc)
pop(None)
freq
opt(CalcFC)

Gaussian input prepared by ASE

0 1
C                 0.9192870000       -1.1813650000       -0.6565320000
C                 0.2677500000        0.2045340000       -0.9111240000
F                 0.9459030000        0.7674360000       -1.9304230000
F                -0.9842350000       -0.0035290000       -1.3321760000
S                -0.9545620000        0.9934190000        1.6441670000
O                 0.2836370000        0.9963880000        0.2081380000
O                -2.0588330000        0.1579960000        1.3736890000
O                -1.0967800000        2.3430470000        2.0289330000
F                 2.2180350000       -1.0596700000       -0.4213810000
F                 0.3479440000       -1.7213360000        0.4239650000
F                 0.7464650000       -2.0019430000       -1.6808740000
H                 0.0089130000        0.3717000000        2.3413970000


