%mem=28GB
%chk=2003846667223680600001_r13_insertion_ROR_1_2_5_8
%nprocshared=8
#P M062X/Def2TZVPP ! ASE formatted method and basis
Symm(None)
scf(xqc)
pop(None)
opt(NoFreeze,TS,CalcAll,NoEigentest,MaxCycle=999)

Gaussian input prepared by ASE

0 1
C                -0.1343750000        0.2545090000        0.1627340000
C                 1.8535770000        0.0762570000        0.0351620000
F                 1.9945680000       -0.6634940000        1.1484960000
F                 1.8852840000       -0.8263880000       -0.9393890000
S                 2.4628870000        1.3876210000       -0.0725570000
O                 2.8850880000        2.0107850000        1.1392990000
O                 3.0668280000        1.7779480000       -1.3212180000
O                 0.5918130000        2.0742260000       -0.2388560000
F                -0.4426670000        0.8891860000        1.2002440000
F                -0.6632050000        0.5537910000       -0.9454830000
F                -0.3192030000       -0.9858030000        0.3595960000
H                 0.5155930000        3.0435000000       -0.1813900000

1 2 F
1 9 F
1 10 F
1 11 F
2 3 F
2 4 F
2 5 F
5 6 F
5 7 F
5 8 F
8 12 F


