%mem=28GB
%chk=2003846667223680600001_R_Addition_MultipleBond_5_8_12
%nprocshared=8
#P mp2/6-31G ! ASE formatted method and basis
Symm(None)
scf(xqc)
pop(None)
guess(Mix,Always)
opt(NoFreeze,TS,CalcAll,NoEigentest,MaxCycle=999)

Gaussian input prepared by ASE

0 1
C                -0.6674373907       -1.3511311351        0.3103452171
C                 0.0106320041        0.0204960528        0.0896683701
F                -0.3211811074        0.4805292401       -1.1230958272
F                -0.3817820912        0.8600029268        1.0436627269
S                 1.8525385484       -0.0354750081        0.1334007993
O                 2.2168424050       -0.6567224914        1.3467240588
O                 2.3337967469       -0.4829354669       -1.1244128893
O                 2.1140164799        1.5141586655        0.1563986869
F                -0.1032432075       -2.2498958988       -0.4764217404
F                -0.5382347142       -1.7222685152        1.5737285313
F                -1.9541410739       -1.2443619322        0.0107859962
H                 2.8190023874        1.4128354876       -1.0317299271

1 2 F
1 9 F
1 10 F
1 11 F
2 3 F
2 4 F
2 5 F
5 6 F
5 7 F
5 8 F
8 12 F
5 8 12 F


