%mem=28GB
%chk=2003846667223680600001_r12_insertion_R_9_1_11
%nprocshared=8
#P M062X/Def2TZVPP ! ASE formatted method and basis
Symm(None)
scf(xqc)
pop(None)
opt(NoFreeze,TS,CalcAll,NoEigentest,MaxCycle=999,Cartesian)

Gaussian input prepared by ASE

0 1
C                -0.2603660000       -1.2774490000       -0.5077920000
C                -0.1210300000        0.2237030000       -0.3469770000
F                -0.0102130000        0.7598730000       -1.5631850000
F                -1.1946890000        0.6828750000        0.2693760000
S                 1.3840600000        0.6492950000        0.6868910000
O                 1.0685410000        1.8693780000        1.3178670000
O                 1.7349170000       -0.5485530000        1.3535860000
O                 2.4236240000        0.9374690000       -0.4532560000
F                -1.0568310000       -1.9420760000        0.1290230000
F                 0.6269410000       -1.8982360000       -1.1701110000
F                -0.1860600000       -2.7699460000        1.7136450000
H                 3.0390450000        0.1932600000       -0.5348660000

1 2 F
1 9 F
1 10 F
1 11 F
2 3 F
2 4 F
2 5 F
5 6 F
5 7 F
5 8 F
8 12 F


