%mem=28GB
%chk=2003846667223680600001_intra_H_migration_6_12
%nprocshared=8
#P M062X/Def2TZVPP ! ASE formatted method and basis
Symm(None)
scf(xqc)
pop(None)
opt(NoFreeze,TS,CalcAll,NoEigentest,MaxCycle=999)

Gaussian input prepared by ASE

0 1
C                 2.9283910000       -1.4571850000       -1.9352220000
C                 2.0362920000       -0.2867730000       -1.7234590000
F                 2.8294490000        0.8873460000       -1.3771610000
F                 1.3527610000        0.1212430000       -2.6789560000
S                 0.7079620000       -0.2927380000        0.0019390000
O                -0.3633330000       -0.7630650000       -0.1257550000
O                 1.7263600000       -0.7621190000        1.0072520000
O                 0.2317520000        0.9720800000        0.1071710000
F                 3.8339210000       -1.5867330000       -0.9580400000
F                 2.3653070000       -2.5425950000       -2.0315810000
F                 3.6846690000       -1.3362830000       -3.0499360000
H                -0.7912810000        0.3578210000       -0.0381230000



