%mem=28GB
%chk=2003846667223680600001_R_Addition_MultipleBond_5_2_3_IRC_F_prod
%nprocshared=8
#P mp2/6-31G ! ASE formatted method and basis
Symm(None)
scf(xqc)
pop(None)
guess(Mix,Always)
freq
opt(CalcFC)

Gaussian input prepared by ASE

0 1
C                -1.1776150000       -0.9378620000       -0.2079560000
C                -0.6016250000        0.4400900000        0.1425850000
F                -1.0403440000        1.3933880000       -0.7576490000
F                -0.9385780000        0.7927510000        1.4432450000
S                 1.4408900000        0.4116280000        0.1756020000
O                 1.8900920000        0.9999760000        1.5831080000
O                 2.0320600000       -0.9726650000       -0.3575990000
O                 1.5646120000        1.6592210000       -1.1403130000
F                -0.8106010000       -1.2886820000       -1.4998020000
F                -0.6966400000       -1.8852700000        0.6886800000
F                -2.5681390000       -0.9039250000       -0.1272960000
H                 2.5246470000        1.7629230000       -1.3786100000


