%mem=28GB
%chk=2003846667223680600001_r12_insertion_R_3_2_5
%nprocshared=8
#P M062X/Def2TZVPP ! ASE formatted method and basis
Symm(None)
scf(xqc)
pop(None)
opt(NoFreeze,TS,CalcAll,NoEigentest,MaxCycle=999)

Gaussian input prepared by ASE

0 1
C                -0.7939550000       -1.3732430000        0.1560360000
C                -0.0427520000       -0.3156240000        0.7350380000
F                 0.3419400000        0.7690360000       -0.4750950000
F                -0.5149950000        0.4071510000        1.5879090000
S                 2.0261040000        0.1482780000        0.1480030000
O                 2.2797100000        0.8839870000        1.2733780000
O                 2.3358060000       -1.1469810000       -0.1825730000
O                 2.5577570000        0.9851580000       -1.0130230000
F                -0.4722010000       -1.6626510000       -1.1009930000
F                -0.6359720000       -2.5368250000        0.8152530000
F                -2.1227480000       -1.2224800000        0.1156780000
H                 2.4892480000        1.9437800000       -1.1654170000

1 2 F
1 9 F
1 10 F
1 11 F
2 3 F
2 4 F
2 5 F
5 6 F
5 7 F
5 8 F
8 12 F


