%mem=28GB
%chk=2003846667223680600001_r12_insertion_R_6_5_8_IRC_F
%nprocshared=8
#P M062X/Def2TZVPP ! ASE formatted method and basis
Symm(None)
scf(xqc)
pop(None)
geom(AllCheck,NoKeepConstants)
guess(Read)
irc(RCFC,forward,MaxPoints=100,StepSize=2)

Gaussian input prepared by ASE

0 1
C                -0.4755690000       -1.4300330000        0.2413450000
C                -0.3693120000        0.1327260000        0.0917950000
F                -0.9187680000        0.5055320000       -1.0327030000
F                -0.9113620000        0.7574090000        1.0936750000
S                 1.6780670000        0.6213550000        0.0577810000
O                 1.6103960000        0.3376990000        1.4786150000
O                 1.6905450000       -0.3409480000       -1.0471990000
O                 3.2532430000        0.9974630000        0.0322200000
F                -0.4296530000       -1.9974930000       -0.9429080000
F                 0.4247960000       -1.9549420000        1.0307240000
F                -1.6847270000       -1.6386180000        0.7628310000
H                 3.5802770000        0.8894430000       -0.8719860000


