%mem=28GB
%chk=2003846667223680600001_r13_insertion_ROR_3_2_5_8
%nprocshared=8
#P M062X/Def2TZVPP ! ASE formatted method and basis
Symm(None)
scf(xqc)
pop(None)
opt(NoFreeze,TS,CalcAll,NoEigentest,MaxCycle=999)

Gaussian input prepared by ASE

0 1
C                 1.7817650000       -0.7414840000       -1.2209410000
C                 1.9144470000        0.1241120000        0.0689450000
F                -0.0071900000       -0.0916340000        0.5795970000
F                 2.3435360000       -0.6545540000        1.0735800000
S                 2.0474950000        1.5678170000        0.0917480000
O                 2.5169400000        2.1300040000        1.3131700000
O                 2.4187950000        2.1636490000       -1.1609240000
O                 0.0665620000        1.8429740000        0.0777460000
F                 0.9100390000       -0.2554050000       -2.0863350000
F                 2.9322070000       -0.8627130000       -1.8582960000
F                 1.3866710000       -1.9697020000       -0.9316450000
H                -0.1088850000        2.7065620000       -0.3245490000

1 2 F
1 9 F
1 10 F
1 11 F
2 3 F
2 4 F
2 5 F
5 6 F
5 7 F
5 8 F
8 12 F


