%mem=28GB
%chk=2003846667223680600001_r12_insertion_R_3_2_5_IRC_F
%nprocshared=8
#P M062X/Def2TZVPP ! ASE formatted method and basis
Symm(None)
scf(xqc)
pop(None)
geom(AllCheck,NoKeepConstants)
guess(Read)
irc(RCFC,forward,MaxPoints=100,StepSize=2)

Gaussian input prepared by ASE

0 1
C                -0.8588510000       -1.4757480000        0.1687820000
C                 0.1507440000       -0.5197470000        0.8285190000
F                 0.3722480000        0.5979870000       -0.5700870000
F                -0.4797420000        0.2135210000        1.6789020000
S                 1.9941970000        0.2297230000        0.0026460000
O                 2.2470260000        0.9483390000        1.2009620000
O                 2.4352420000       -1.0435640000       -0.4136820000
O                 2.5451050000        1.1656480000       -1.1481790000
F                -0.3534610000       -2.0264460000       -0.9170650000
F                -1.1148460000       -2.4262400000        1.0656950000
F                -1.9987370000       -0.8706040000       -0.1450930000
H                 2.5090180000        2.0867170000       -0.8572080000


