%mem=28GB
%chk=2003846667223680600001_r12_insertion_R_6_5_2_IRC_R_prod
%nprocshared=8
#P M062X/Def2TZVPP ! ASE formatted method and basis
Symm(None)
scf(xqc)
pop(None)
freq
opt(CalcFC)

Gaussian input prepared by ASE

0 1
C                -1.1615730000       -0.9442410000        0.0229870000
C                -0.4463670000        0.4346900000       -0.2218150000
F                -0.5449660000        0.7712240000       -1.5114320000
F                -1.0245400000        1.3788440000        0.5134790000
S                 1.3483050000        0.4000040000        0.1936780000
O                 1.4574810000        0.2769040000        1.5958540000
O                 1.9774410000       -0.4714090000       -0.7333950000
O                 1.7006620000        1.8867720000       -0.1783930000
F                -1.6835330000       -1.3868960000       -1.1078680000
F                -0.3020990000       -1.8460350000        0.4755230000
F                -2.1268700000       -0.7961240000        0.9126210000
H                 1.9775390000        1.9405790000       -1.1045620000


