%mem=28GB
%chk=2003847066703800600001_well
%nprocshared=8
#P M062X/Def2TZVPP ! ASE formatted method and basis
Symm(None)
scf(xqc)
pop(None)
freq
opt(CalcFC, Tight)

Gaussian input prepared by ASE

0 1
C                -0.5720470000       -1.3522520000        0.1087210000
C                -0.0048910000        1.5034040000       -0.2305840000
F                -0.9512520000        1.1971600000       -1.1364010000
F                -0.5875050000        2.0484170000        0.8187200000
S                 0.8100400000       -0.1096180000        0.2493270000
O                 1.1921410000       -0.0756770000        1.6180020000
O                 1.7301710000       -0.3664670000       -0.8167230000
O                 0.9303940000        2.3269120000       -0.7120440000
F                -0.8678530000       -1.5900540000       -1.1510040000
F                -0.1589060000       -2.4632070000        0.6853370000
F                -1.6345390000       -0.8874250000        0.7417970000
H                 1.5008520000        1.8492650000       -1.3325640000


