%mem=28GB
%chk=2003846667223680600001_intra_H_migration_6_12_IRC_R
%nprocshared=8
#P M062X/Def2TZVPP ! ASE formatted method and basis
Symm(None)
scf(xqc)
pop(None)
geom(AllCheck,NoKeepConstants)
guess(Read)
irc(RCFC,reverse,MaxPoints=100,StepSize=2)

Gaussian input prepared by ASE

0 1
C                 2.8592410000       -1.4100980000       -1.8446400000
C                 2.0485430000       -0.1285910000       -1.5372350000
F                 2.8892290000        0.8824950000       -1.3327920000
F                 1.2578550000        0.1461370000       -2.5702410000
S                 0.9872120000       -0.2784630000       -0.0370080000
O                -0.2338650000       -1.0451340000       -0.4416940000
O                 1.8079910000       -0.7338500000        1.0174610000
O                 0.2763190000        1.0369970000        0.0569740000
F                 3.8059730000       -1.5876120000       -0.9434650000
F                 2.0494380000       -2.4591970000       -1.8479130000
F                 3.4154860000       -1.2862330000       -3.0395480000
H                -0.6211730000        0.1745470000       -0.2817700000


