%mem=28GB
%chk=2003846667223680600001_R_Addition_MultipleBond_5_2_3
%nprocshared=8
#P mp2/6-31G ! ASE formatted method and basis
Symm(None)
scf(xqc)
pop(None)
guess(Mix,Always)
opt(NoFreeze,TS,CalcAll,NoEigentest,MaxCycle=999,Cartesian)

Gaussian input prepared by ASE

0 1
C                -0.6562260000       -1.3291340000        0.1125540000
C                 0.0308230000        0.0426000000        0.1312900000
F                -0.1666750000        0.7011400000       -1.0833490000
F                -0.4310150000        0.8035870000        1.1951890000
S                 2.0248180000       -0.0648480000        0.3702880000
O                 2.3670290000       -0.0773640000        1.9157080000
O                 2.5695080000       -1.1539080000       -0.6623110000
O                 2.3574270000        1.6163620000       -0.2307800000
F                -0.3718050000       -1.9954920000       -1.0700650000
F                -0.1897560000       -2.0844290000        1.1875950000
F                -2.0345210000       -1.1778400000        0.2296560000
H                 2.3564660000        1.6076040000       -1.2257750000

1 2 F
1 9 F
1 10 F
1 11 F
2 3 F
2 4 F
2 5 F
5 6 F
5 7 F
5 8 F
8 12 F
5 2 3 F


