%mem=28GB
%chk=2003846667223680600001_intra_H_migration_5_12_IRC_R
%nprocshared=8
#P M062X/Def2TZVPP ! ASE formatted method and basis
Symm(None)
scf(xqc)
pop(None)
geom(AllCheck,NoKeepConstants)
guess(Read)
irc(RCFC,reverse,MaxPoints=100,StepSize=2)

Gaussian input prepared by ASE

0 1
C                -0.6124380000       -1.3081540000        0.2471180000
C                 0.0056370000        0.1069700000        0.1491340000
F                -0.3527130000        0.6613820000       -1.0049410000
F                -0.4369850000        0.8490200000        1.1612050000
S                 1.8477390000        0.1050330000        0.2273530000
O                 2.2215280000       -0.6379770000        1.3680970000
O                 2.3413100000       -0.2818380000       -1.1325440000
O                 2.2341770000        1.5458880000        0.0889350000
F                -0.0221120000       -2.1131110000       -0.6246520000
F                -0.4668030000       -1.7949590000        1.4643330000
F                -1.9030090000       -1.2303710000       -0.0373660000
H                 2.5916080000        0.9777080000       -1.0124780000


