%mem=28GB
%chk=2003846667223680600001_r12_insertion_R_6_5_2_IRC_F
%nprocshared=8
#P M062X/Def2TZVPP ! ASE formatted method and basis
Symm(None)
scf(xqc)
pop(None)
geom(AllCheck,NoKeepConstants)
guess(Read)
irc(RCFC,forward,MaxPoints=100,StepSize=2)

Gaussian input prepared by ASE

0 1
C                -1.1615860000       -0.9442410000        0.0230540000
C                -0.4456880000        0.4337050000       -0.2249580000
F                -0.5403700000        0.7653570000       -1.5160810000
F                -1.0262360000        1.3805720000        0.5050140000
S                 1.3477930000        0.4006850000        0.1958090000
O                 1.4524800000        0.2765270000        1.5982630000
O                 1.9811530000       -0.4691360000       -0.7298390000
O                 1.6995560000        1.8881200000       -0.1741930000
F                -1.6963060000       -1.3819470000       -1.1037820000
F                -0.2996170000       -1.8495570000        0.4635880000
F                -2.1171960000       -0.7967770000        0.9230740000
H                 1.9807740000        1.9424730000       -1.0990140000


