%mem=28GB
%chk=2003846667223680600001_r12_insertion_R_2_1_9_IRC_R_prod
%nprocshared=8
#P M062X/Def2TZVPP ! ASE formatted method and basis
Symm(None)
scf(xqc)
pop(None)
freq
opt(CalcFC)

Gaussian input prepared by ASE

0 1
C                -1.0178270000       -0.8586030000        0.2538510000
C                -0.6210460000        0.4516140000       -0.4423320000
F                -0.9155220000        0.3487960000       -1.7289790000
F                -1.1283690000        1.5774600000        0.0328130000
S                 1.2490470000        0.3716360000        0.0506120000
O                 1.2311760000       -0.3036630000        1.2964890000
O                 2.1316490000        0.0334080000       -1.0102910000
O                 1.4457500000        1.8888640000        0.3883220000
F                 0.0462980000       -1.5894770000       -0.3335730000
F                -1.2157230000       -0.5365310000        1.5410980000
F                -2.0096090000       -1.6532090000       -0.0313820000
H                 2.0302970000        2.2977770000       -0.2640480000


