%mem=28GB
%chk=2003846667223680600001_r12_insertion_R_6_5_8_IRC_F_prod
%nprocshared=8
#P M062X/Def2TZVPP ! ASE formatted method and basis
Symm(None)
scf(xqc)
pop(None)
freq
opt(CalcFC)

Gaussian input prepared by ASE

0 1
C                -0.9126750000       -1.0640720000        0.0761520000
C                -0.6964150000        0.5163390000       -0.0804440000
F                -1.2810560000        0.8879270000       -1.2094610000
F                -1.2805930000        1.1297240000        0.9321690000
S                 1.2470660000        0.6557290000       -0.0171980000
O                 1.3482940000        0.4825350000        1.3885910000
O                 1.4569850000       -0.2478690000       -1.1094530000
O                 2.3677480000        1.7590070000       -0.2702080000
F                -0.8728010000       -1.6490990000       -1.1048990000
F                -0.0279880000       -1.6365420000        0.8693140000
F                -2.1166730000       -1.2573000000        0.6000450000
H                 2.6688810000        1.6826760000       -1.1883070000


