%mem=28GB
%chk=2003846667223680600001_intra_H_migration_5_12_IRC_F_prod
%nprocshared=8
#P M062X/Def2TZVPP ! ASE formatted method and basis
Symm(None)
scf(xqc)
pop(None)
freq
opt(CalcFC)

Gaussian input prepared by ASE

0 1
C                -1.1248640000       -0.9623890000        0.0752810000
C                -0.5032890000        0.4483350000       -0.0281700000
F                -0.8679340000        1.0053560000       -1.1801930000
F                -0.9474700000        1.1904240000        0.9856740000
S                 1.3446410000        0.5141050000        0.0730330000
O                 1.7092280000       -0.3135200000        1.1617760000
O                 1.8289200000       -0.0030230000       -1.3296370000
O                 1.6867110000        1.8929310000       -0.0084550000
F                -0.5352500000       -1.7685930000       -0.7974910000
F                -0.9805740000       -1.4501440000        1.2918550000
F                -2.4170450000       -0.8864280000       -0.2096330000
H                 2.1667600000        0.7865760000       -1.7801650000


