%mem=28GB
%chk=2003846667223680600001_r12_insertion_R_5_2_1_IRC_R_prod
%nprocshared=8
#P M062X/Def2TZVPP ! ASE formatted method and basis
Symm(None)
scf(xqc)
pop(None)
freq
opt(CalcFC)

Gaussian input prepared by ASE

0 1
C                -0.8053600000       -1.0833080000        0.1276110000
C                -0.5461550000        0.7723020000       -0.2387390000
F                -0.8910660000        1.1406110000       -1.4672630000
F                -1.1611310000        1.6196580000        0.5807210000
S                 1.1221250000        0.4186890000        0.0741840000
O                 1.1451320000        0.0862690000        1.4520130000
O                 1.5057580000       -0.4941590000       -0.9487160000
O                 1.8560830000        1.7752040000       -0.1626280000
F                -1.2617070000       -1.4655070000       -1.0379920000
F                 0.0133300000       -2.0898100000        0.5213430000
F                -1.6691350000       -0.9515190000        1.0989300000
H                 2.6489920000        1.6444150000       -0.7009450000


