%mem=28GB
%chk=2003846667223680600001_r12_insertion_R_5_2_3
%nprocshared=8
#P M062X/Def2TZVPP ! ASE formatted method and basis
Symm(None)
scf(xqc)
pop(None)
opt(NoFreeze,TS,CalcAll,NoEigentest,MaxCycle=999)

Gaussian input prepared by ASE

0 1
C                -0.6910330000       -1.4373640000        0.1259000000
C                 0.0689850000       -0.2298390000        0.6500250000
F                 0.5411320000        0.9890230000       -1.1195700000
F                -0.6139440000        0.4734490000        1.5152560000
S                 1.6223210000        0.2330440000        0.2477260000
O                 1.7512710000        1.3259060000        1.1893670000
O                 2.0902400000       -1.1197880000        0.4466360000
O                 2.7156420000        0.6272850000       -0.8390330000
F                -1.0479990000       -1.2889360000       -1.1418850000
F                -0.0029380000       -2.5697210000        0.1907090000
F                -1.8046190000       -1.6553580000        0.7961720000
H                 2.8188810000        1.5318930000       -1.1671050000

1 2 F
1 9 F
1 10 F
1 11 F
2 3 F
2 4 F
2 5 F
5 6 F
5 7 F
5 8 F
8 12 F


