%mem=28GB
%chk=2004328380979804780401_well
%nprocshared=8
#P M062X/Def2TZVPP ! ASE formatted method and basis
Symm(None)
scf(xqc)
pop(None)
freq
opt(CalcFC, Tight)

Gaussian input prepared by ASE

0 1
C                -0.8091220000       -0.4812080000        0.7631630000
C                -0.7514830000        0.4804630000       -0.4771300000
F                -1.3569750000        0.0425820000       -1.5507570000
F                -1.1427280000        1.7052490000       -0.2290160000
S                 1.1384720000        0.1185850000       -0.3201850000
O                 0.5475000000       -0.7516880000        0.9262160000
O                 2.5439440000       -0.0036410000       -0.5697160000
O                 1.2050680000        1.5529130000        0.4722610000
F                 0.7650020000       -1.1010070000       -1.3847880000
F                -1.3018920000        0.1090020000        1.8390260000
F                -1.4909290000       -1.5871130000        0.5273480000
H                 2.1217960000        1.7150200000        0.7270060000


